Ge 
 1.0000000000000000
     0.0000000000000000    2.8300000000000001    2.8300000000000001
     2.8300000000000001    0.0000000000000000    2.8300000000000001
     2.8300000000000001    2.8300000000000001    0.0000000000000000
  Ge
   2
Cartesian
  0.0000000000000000  0.0000000000000000  0.0000000000000000
  1.4150000000000000  1.4150000000000000  1.4150000000000000
