%BLOCK LATTICE_CART
ang    # angstrom units
   1.961550000000000   1.961550000000000   0.000000000000000
   1.961550000000000   0.000000000000000   1.961550000000000
   0.000000000000000   1.961550000000000   1.961550000000000
%ENDBLOCK LATTICE_CART

%BLOCK POSITIONS_FRAC
Pt   0.000000000000000   0.000000000000000   0.000000000000000 
%ENDBLOCK POSITIONS_FRAC

SYMMETRY_GENERATE

KPOINT_MP_SPACING: 0.04
SPECTRAL_KPOINT_PATH_SPACING : 0.04 

%BLOCK SPECTRAL_KPOINT_PATH
0 0 0 ! \Gamma
0.5 0 0.5 ! X
0.625 0.25 0.625 ! U
BREAK
0.375 0.375 0.75 ! K
0 0 0 ! \Gamma
0.5 0.5 0.5 ! L
0.5 0.25 0.75 ! W
0.5 0 0.5 ! X
%ENDBLOCK SPECTRAL_KPOINT_PATH
