Autmatically generated mesh
96
Reciprocal
0.0 0.0 0.0 1 \Gamma
0.25 0.0 0.0 2 
0.5 0.0 0.0 1 
0.0 0.25 0.0 2 
0.25 0.25 0.0 2 
0.5 0.25 0.0 2 
-0.25 0.25 0.0 2 
0.0 0.5 0.0 1 
0.25 0.5 0.0 2 
0.5 0.5 0.0 1 
0.0 0.0 0.25 2 
0.25 0.0 0.25 2 
0.5 0.0 0.25 2 
-0.25 0.0 0.25 2 
0.0 0.25 0.25 2 
0.25 0.25 0.25 2 
0.5 0.25 0.25 2 
-0.25 0.25 0.25 2 
0.0 0.5 0.25 2 
0.25 0.5 0.25 2 
0.5 0.5 0.25 2 
-0.25 0.5 0.25 2 
0.0 -0.25 0.25 2 
0.25 -0.25 0.25 2 
0.5 -0.25 0.25 2 
-0.25 -0.25 0.25 2 
0.0 0.0 0.5 1 
0.25 0.0 0.5 2 
0.5 0.0 0.5 1 X
0.0 0.25 0.5 2 
0.25 0.25 0.5 2 
0.5 0.25 0.5 2 
-0.25 0.25 0.5 2 
0.0 0.5 0.5 1 
0.25 0.5 0.5 2 
0.5 0.5 0.5 1 L
0.0 0.0 0.0 0 \Gamma
0.01190476 0.01190476 0.01190476 0 
0.02380952 0.02380952 0.02380952 0 
0.03571429 0.03571429 0.03571429 0 
0.04761905 0.04761905 0.04761905 0 
0.05952381 0.05952381 0.05952381 0 
0.07142857 0.07142857 0.07142857 0 
0.08333333 0.08333333 0.08333333 0 
0.0952381 0.0952381 0.0952381 0 
0.10714286 0.10714286 0.10714286 0 
0.11904762 0.11904762 0.11904762 0 
0.13095238 0.13095238 0.13095238 0 
0.14285714 0.14285714 0.14285714 0 
0.1547619 0.1547619 0.1547619 0 
0.16666667 0.16666667 0.16666667 0 
0.17857143 0.17857143 0.17857143 0 
0.19047619 0.19047619 0.19047619 0 
0.20238095 0.20238095 0.20238095 0 
0.21428571 0.21428571 0.21428571 0 
0.22619048 0.22619048 0.22619048 0 
0.23809524 0.23809524 0.23809524 0 
0.25 0.25 0.25 0 
0.26190476 0.26190476 0.26190476 0 
0.27380952 0.27380952 0.27380952 0 
0.28571429 0.28571429 0.28571429 0 
0.29761905 0.29761905 0.29761905 0 
0.30952381 0.30952381 0.30952381 0 
0.32142857 0.32142857 0.32142857 0 
0.33333333 0.33333333 0.33333333 0 
0.3452381 0.3452381 0.3452381 0 
0.35714286 0.35714286 0.35714286 0 
0.36904762 0.36904762 0.36904762 0 
0.38095238 0.38095238 0.38095238 0 
0.39285714 0.39285714 0.39285714 0 
0.4047619 0.4047619 0.4047619 0 
0.41666667 0.41666667 0.41666667 0 
0.42857143 0.42857143 0.42857143 0 
0.44047619 0.44047619 0.44047619 0 
0.45238095 0.45238095 0.45238095 0 
0.46428571 0.46428571 0.46428571 0 
0.47619048 0.47619048 0.47619048 0 
0.48809524 0.48809524 0.48809524 0 
0.5 0.5 0.5 0 L
0.5 0.48529412 0.51470588 0 
0.5 0.47058824 0.52941176 0 
0.5 0.45588235 0.54411765 0 
0.5 0.44117647 0.55882353 0 
0.5 0.42647059 0.57352941 0 
0.5 0.41176471 0.58823529 0 
0.5 0.39705882 0.60294118 0 
0.5 0.38235294 0.61764706 0 
0.5 0.36764706 0.63235294 0 
0.5 0.35294118 0.64705882 0 
0.5 0.33823529 0.66176471 0 
0.5 0.32352941 0.67647059 0 
0.5 0.30882353 0.69117647 0 
0.5 0.29411765 0.70588235 0 
0.5 0.27941176 0.72058824 0 
0.5 0.26470588 0.73529412 0 
0.5 0.25 0.75 0 W
