kpoints_mp_grid         : 8 8 8

%block lattice_cart
0.000000 1.760000 1.760000
1.760000 0.000000 1.760000
1.760000 1.760000 0.000000
%endblock lattice_cart

%block positions_abs
Ni 0.000000 0.000000 0.000000
%endblock positions_abs

%block species_pot
Ni QC5
%endblock species_pot

%block bs_kpoint_list
0.0 0.0 0.0                    ! \Gamma
0.005376344086021507 0.005376344086021507 0.005376344086021507
0.010752688172043013 0.010752688172043013 0.010752688172043013
0.01612903225806452 0.01612903225806452 0.01612903225806452
0.021505376344086027 0.021505376344086027 0.021505376344086027
0.02688172043010753 0.02688172043010753 0.02688172043010753
0.03225806451612904 0.03225806451612904 0.03225806451612904
0.037634408602150546 0.037634408602150546 0.037634408602150546
0.04301075268817205 0.04301075268817205 0.04301075268817205
0.04838709677419355 0.04838709677419355 0.04838709677419355
0.05376344086021506 0.05376344086021506 0.05376344086021506
0.05913978494623657 0.05913978494623657 0.05913978494623657
0.06451612903225808 0.06451612903225808 0.06451612903225808
0.06989247311827958 0.06989247311827958 0.06989247311827958
0.07526881720430109 0.07526881720430109 0.07526881720430109
0.08064516129032259 0.08064516129032259 0.08064516129032259
0.0860215053763441 0.0860215053763441 0.0860215053763441
0.0913978494623656 0.0913978494623656 0.0913978494623656
0.0967741935483871 0.0967741935483871 0.0967741935483871
0.10215053763440862 0.10215053763440862 0.10215053763440862
0.10752688172043012 0.10752688172043012 0.10752688172043012
0.11290322580645162 0.11290322580645162 0.11290322580645162
0.11827956989247314 0.11827956989247314 0.11827956989247314
0.12365591397849464 0.12365591397849464 0.12365591397849464
0.12903225806451615 0.12903225806451615 0.12903225806451615
0.13440860215053765 0.13440860215053765 0.13440860215053765
0.13978494623655915 0.13978494623655915 0.13978494623655915
0.14516129032258066 0.14516129032258066 0.14516129032258066
0.15053763440860218 0.15053763440860218 0.15053763440860218
0.15591397849462368 0.15591397849462368 0.15591397849462368
0.16129032258064518 0.16129032258064518 0.16129032258064518
0.16666666666666669 0.16666666666666669 0.16666666666666669
0.1720430107526882 0.1720430107526882 0.1720430107526882
0.1774193548387097 0.1774193548387097 0.1774193548387097
0.1827956989247312 0.1827956989247312 0.1827956989247312
0.1881720430107527 0.1881720430107527 0.1881720430107527
0.1935483870967742 0.1935483870967742 0.1935483870967742
0.19892473118279572 0.19892473118279572 0.19892473118279572
0.20430107526881724 0.20430107526881724 0.20430107526881724
0.20967741935483875 0.20967741935483875 0.20967741935483875
0.21505376344086025 0.21505376344086025 0.21505376344086025
0.22043010752688175 0.22043010752688175 0.22043010752688175
0.22580645161290325 0.22580645161290325 0.22580645161290325
0.23118279569892472 0.23118279569892472 0.23118279569892472
0.23655913978494628 0.23655913978494628 0.23655913978494628
0.24193548387096778 0.24193548387096778 0.24193548387096778
0.24731182795698928 0.24731182795698928 0.24731182795698928
0.25268817204301075 0.25268817204301075 0.25268817204301075
0.2580645161290323 0.2580645161290323 0.2580645161290323
0.2634408602150538 0.2634408602150538 0.2634408602150538
0.2688172043010753 0.2688172043010753 0.2688172043010753
0.2741935483870968 0.2741935483870968 0.2741935483870968
0.2795698924731183 0.2795698924731183 0.2795698924731183
0.2849462365591398 0.2849462365591398 0.2849462365591398
0.2903225806451613 0.2903225806451613 0.2903225806451613
0.2956989247311828 0.2956989247311828 0.2956989247311828
0.30107526881720437 0.30107526881720437 0.30107526881720437
0.30645161290322587 0.30645161290322587 0.30645161290322587
0.31182795698924737 0.31182795698924737 0.31182795698924737
0.31720430107526887 0.31720430107526887 0.31720430107526887
0.32258064516129037 0.32258064516129037 0.32258064516129037
0.32795698924731187 0.32795698924731187 0.32795698924731187
0.33333333333333337 0.33333333333333337 0.33333333333333337
0.33870967741935487 0.33870967741935487 0.33870967741935487
0.3440860215053764 0.3440860215053764 0.3440860215053764
0.34946236559139787 0.34946236559139787 0.34946236559139787
0.3548387096774194 0.3548387096774194 0.3548387096774194
0.3602150537634409 0.3602150537634409 0.3602150537634409
0.3655913978494624 0.3655913978494624 0.3655913978494624
0.3709677419354839 0.3709677419354839 0.3709677419354839
0.3763440860215054 0.3763440860215054 0.3763440860215054
0.3817204301075269 0.3817204301075269 0.3817204301075269
0.3870967741935484 0.3870967741935484 0.3870967741935484
0.39247311827956993 0.39247311827956993 0.39247311827956993
0.39784946236559143 0.39784946236559143 0.39784946236559143
0.40322580645161293 0.40322580645161293 0.40322580645161293
0.4086021505376345 0.4086021505376345 0.4086021505376345
0.413978494623656 0.413978494623656 0.413978494623656
0.4193548387096775 0.4193548387096775 0.4193548387096775
0.424731182795699 0.424731182795699 0.424731182795699
0.4301075268817205 0.4301075268817205 0.4301075268817205
0.435483870967742 0.435483870967742 0.435483870967742
0.4408602150537635 0.4408602150537635 0.4408602150537635
0.446236559139785 0.446236559139785 0.446236559139785
0.4516129032258065 0.4516129032258065 0.4516129032258065
0.45698924731182794 0.45698924731182794 0.45698924731182794
0.46236559139784944 0.46236559139784944 0.46236559139784944
0.46774193548387094 0.46774193548387094 0.46774193548387094
0.47311827956989255 0.47311827956989255 0.47311827956989255
0.47849462365591405 0.47849462365591405 0.47849462365591405
0.48387096774193555 0.48387096774193555 0.48387096774193555
0.48924731182795705 0.48924731182795705 0.48924731182795705
0.49462365591397855 0.49462365591397855 0.49462365591397855
0.5 0.5 0.5                    ! L
0.5 0.4967105263157895 0.5032894736842106
0.5 0.493421052631579 0.506578947368421
0.5000000000000001 0.4901315789473685 0.5098684210526316
0.5 0.4868421052631579 0.5131578947368421
0.5 0.48355263157894735 0.5164473684210527
0.5000000000000001 0.48026315789473684 0.5197368421052633
0.5 0.4769736842105263 0.5230263157894737
0.5 0.4736842105263158 0.5263157894736843
0.5 0.4703947368421053 0.5296052631578947
0.5 0.4671052631578948 0.5328947368421053
0.5 0.46381578947368424 0.5361842105263158
0.5 0.4605263157894737 0.5394736842105263
0.5000000000000001 0.45723684210526316 0.542763157894737
0.5 0.45394736842105265 0.5460526315789473
0.5 0.45065789473684215 0.549342105263158
0.5000000000000001 0.44736842105263164 0.5526315789473685
0.5 0.4440789473684211 0.555921052631579
0.5 0.4407894736842105 0.5592105263157895
0.5 0.4375 0.5625
0.5 0.4342105263157895 0.5657894736842106
0.5 0.430921052631579 0.569078947368421
0.5 0.4276315789473684 0.5723684210526316
0.5 0.42434210526315785 0.5756578947368421
0.5 0.42105263157894735 0.5789473684210527
0.5 0.41776315789473684 0.5822368421052633
0.5 0.4144736842105263 0.5855263157894737
0.5000000000000001 0.4111842105263158 0.5888157894736843
0.5 0.4078947368421053 0.5921052631578947
0.5 0.4046052631578947 0.5953947368421053
0.5 0.40131578947368424 0.5986842105263157
0.5000000000000001 0.3980263157894737 0.6019736842105263
0.5 0.39473684210526316 0.6052631578947368
0.5000000000000001 0.39144736842105265 0.6085526315789475
0.5 0.38815789473684215 0.611842105263158
0.5 0.38486842105263164 0.6151315789473684
0.5 0.3815789473684211 0.618421052631579
0.5 0.3782894736842105 0.6217105263157895
0.5 0.375 0.625
0.5000000000000001 0.3717105263157895 0.6282894736842106
0.5 0.368421052631579 0.631578947368421
0.5 0.3651315789473684 0.6348684210526316
0.5 0.3618421052631579 0.6381578947368421
0.5 0.3585526315789474 0.6414473684210527
0.5000000000000001 0.35526315789473684 0.6447368421052633
0.5 0.3519736842105263 0.6480263157894737
0.5 0.3486842105263158 0.6513157894736843
0.5000000000000001 0.34539473684210525 0.6546052631578948
0.5 0.34210526315789475 0.6578947368421053
0.5 0.3388157894736842 0.6611842105263158
0.5000000000000001 0.3355263157894737 0.6644736842105263
0.5 0.33223684210526316 0.6677631578947368
0.5 0.32894736842105265 0.6710526315789473
0.5 0.32565789473684215 0.674342105263158
0.5000000000000001 0.3223684210526316 0.6776315789473685
0.5 0.319078947368421 0.680921052631579
0.5000000000000001 0.3157894736842105 0.6842105263157896
0.5 0.3125 0.6875
0.5000000000000001 0.30921052631578944 0.6907894736842106
0.5 0.305921052631579 0.694078947368421
0.5000000000000001 0.3026315789473684 0.6973684210526316
0.5 0.2993421052631579 0.700657894736842
0.5000000000000001 0.29605263157894735 0.7039473684210527
0.5 0.29276315789473684 0.7072368421052632
0.5000000000000001 0.2894736842105263 0.7105263157894737
0.5 0.28618421052631576 0.7138157894736843
0.5 0.28289473684210525 0.7171052631578948
0.5000000000000001 0.27960526315789475 0.7203947368421053
0.5000000000000001 0.2763157894736842 0.7236842105263159
0.5 0.2730263157894737 0.7269736842105263
0.5000000000000001 0.26973684210526316 0.730263157894737
0.5 0.26644736842105265 0.7335526315789473
0.5 0.2631578947368421 0.736842105263158
0.5000000000000001 0.2598684210526316 0.7401315789473685
0.5 0.2565789473684211 0.743421052631579
0.5 0.2532894736842105 0.7467105263157895
0.5 0.25 0.75                  ! W
0.5 0.24537037037037038 0.7453703703703703
0.5 0.24074074074074073 0.7407407407407407
0.5 0.2361111111111111 0.7361111111111112
0.5 0.23148148148148148 0.7314814814814815
0.5 0.22685185185185186 0.7268518518518519
0.5 0.2222222222222222 0.7222222222222222
0.5 0.2175925925925926 0.7175925925925926
0.5 0.21296296296296297 0.712962962962963
0.5 0.20833333333333334 0.7083333333333334
0.5 0.20370370370370372 0.7037037037037037
0.5 0.19907407407407407 0.6990740740740741
0.5 0.19444444444444445 0.6944444444444444
0.5 0.18981481481481483 0.6898148148148149
0.5 0.1851851851851852 0.6851851851851852
0.5 0.18055555555555552 0.6805555555555556
0.5 0.17592592592592593 0.6759259259259259
0.5 0.1712962962962963 0.6712962962962963
0.5 0.16666666666666669 0.6666666666666667
0.5 0.16203703703703703 0.662037037037037
0.5 0.1574074074074074 0.6574074074074074
0.5 0.15277777777777776 0.6527777777777778
0.5 0.14814814814814817 0.6481481481481481
0.5 0.14351851851851852 0.6435185185185185
0.5 0.1388888888888889 0.6388888888888888
0.5 0.13425925925925924 0.6342592592592593
0.5 0.12962962962962965 0.6296296296296297
0.5 0.125 0.625
0.5 0.12037037037037036 0.6203703703703703
0.5 0.11574074074074073 0.6157407407407407
0.5 0.11111111111111109 0.611111111111111
0.5 0.10648148148148148 0.6064814814814815
0.5 0.10185185185185186 0.6018518518518519
0.5 0.0972222222222222 0.5972222222222222
0.5 0.0925925925925926 0.5925925925925926
0.5 0.08796296296296297 0.587962962962963
0.5 0.08333333333333334 0.5833333333333334
0.5 0.07870370370370368 0.5787037037037037
0.5 0.07407407407407406 0.5740740740740741
0.5 0.06944444444444446 0.5694444444444444
0.5 0.06481481481481483 0.5648148148148149
0.5 0.06018518518518517 0.5601851851851851
0.5 0.05555555555555554 0.5555555555555556
0.5 0.050925925925925944 0.5509259259259259
0.5 0.046296296296296315 0.5462962962962963
0.5 0.04166666666666666 0.5416666666666666
0.5 0.03703703703703703 0.537037037037037
0.5 0.0324074074074074 0.5324074074074074
0.5 0.0277777777777778 0.5277777777777778
0.5 0.023148148148148143 0.5231481481481481
0.5 0.018518518518518514 0.5185185185185185
0.5 0.013888888888888885 0.5138888888888888
0.5 0.009259259259259288 0.5092592592592593
0.5 0.0046296296296296285 0.5046296296296297
0.5 0.0 0.5                    ! X
0.4953703703703704 0.0 0.4953703703703704
0.4907407407407408 0.0 0.4907407407407408
0.48611111111111116 0.0 0.48611111111111116
0.4814814814814815 0.0 0.4814814814814815
0.4768518518518519 0.0 0.4768518518518519
0.47222222222222227 0.0 0.47222222222222227
0.46759259259259267 0.0 0.46759259259259267
0.462962962962963 0.0 0.462962962962963
0.45833333333333337 0.0 0.45833333333333337
0.4537037037037038 0.0 0.4537037037037038
0.4490740740740741 0.0 0.4490740740740741
0.44444444444444453 0.0 0.44444444444444453
0.4398148148148149 0.0 0.4398148148148149
0.43518518518518523 0.0 0.43518518518518523
0.4305555555555556 0.0 0.4305555555555556
0.42592592592592593 0.0 0.42592592592592593
0.4212962962962963 0.0 0.4212962962962963
0.4166666666666667 0.0 0.4166666666666667
0.41203703703703703 0.0 0.41203703703703703
0.40740740740740744 0.0 0.40740740740740744
0.4027777777777778 0.0 0.4027777777777778
0.39814814814814814 0.0 0.39814814814814814
0.39351851851851855 0.0 0.39351851851851855
0.3888888888888889 0.0 0.3888888888888889
0.3842592592592593 0.0 0.3842592592592593
0.37962962962962965 0.0 0.37962962962962965
0.375 0.0 0.375
0.3703703703703704 0.0 0.3703703703703704
0.36574074074074076 0.0 0.36574074074074076
0.36111111111111116 0.0 0.36111111111111116
0.3564814814814815 0.0 0.3564814814814815
0.35185185185185186 0.0 0.35185185185185186
0.34722222222222227 0.0 0.34722222222222227
0.3425925925925926 0.0 0.3425925925925926
0.337962962962963 0.0 0.337962962962963
0.33333333333333337 0.0 0.33333333333333337
0.3287037037037037 0.0 0.3287037037037037
0.3240740740740741 0.0 0.3240740740740741
0.3194444444444445 0.0 0.3194444444444445
0.3148148148148148 0.0 0.3148148148148148
0.31018518518518523 0.0 0.31018518518518523
0.3055555555555556 0.0 0.3055555555555556
0.300925925925926 0.0 0.300925925925926
0.29629629629629634 0.0 0.29629629629629634
0.2916666666666667 0.0 0.2916666666666667
0.2870370370370371 0.0 0.2870370370370371
0.28240740740740744 0.0 0.28240740740740744
0.27777777777777785 0.0 0.27777777777777785
0.27314814814814814 0.0 0.27314814814814814
0.26851851851851855 0.0 0.26851851851851855
0.2638888888888889 0.0 0.2638888888888889
0.2592592592592593 0.0 0.2592592592592593
0.25462962962962965 0.0 0.25462962962962965
0.25 0.0 0.25
0.24537037037037038 0.0 0.24537037037037038
0.24074074074074076 0.0 0.24074074074074076
0.23611111111111113 0.0 0.23611111111111113
0.23148148148148148 0.0 0.23148148148148148
0.2268518518518519 0.0 0.2268518518518519
0.2222222222222222 0.0 0.2222222222222222
0.21759259259259264 0.0 0.21759259259259264
0.21296296296296297 0.0 0.21296296296296297
0.20833333333333334 0.0 0.20833333333333334
0.20370370370370372 0.0 0.20370370370370372
0.19907407407407407 0.0 0.19907407407407407
0.19444444444444445 0.0 0.19444444444444445
0.18981481481481483 0.0 0.18981481481481483
0.1851851851851852 0.0 0.1851851851851852
0.18055555555555558 0.0 0.18055555555555558
0.17592592592592593 0.0 0.17592592592592593
0.1712962962962963 0.0 0.1712962962962963
0.16666666666666669 0.0 0.16666666666666669
0.16203703703703706 0.0 0.16203703703703706
0.1574074074074074 0.0 0.1574074074074074
0.1527777777777778 0.0 0.1527777777777778
0.14814814814814817 0.0 0.14814814814814817
0.14351851851851855 0.0 0.14351851851851855
0.13888888888888892 0.0 0.13888888888888892
0.13425925925925927 0.0 0.13425925925925927
0.12962962962962965 0.0 0.12962962962962965
0.12500000000000003 0.0 0.12500000000000003
0.12037037037037034 0.0 0.12037037037037034
0.11574074074074077 0.0 0.11574074074074077
0.11111111111111115 0.0 0.11111111111111115
0.10648148148148145 0.0 0.10648148148148145
0.10185185185185189 0.0 0.10185185185185189
0.0972222222222222 0.0 0.0972222222222222
0.09259259259259263 0.0 0.09259259259259263
0.087962962962963 0.0 0.087962962962963
0.08333333333333331 0.0 0.08333333333333331
0.07870370370370375 0.0 0.07870370370370375
0.07407407407407406 0.0 0.07407407407407406
0.06944444444444442 0.0 0.06944444444444442
0.06481481481481485 0.0 0.06481481481481485
0.06018518518518517 0.0 0.06018518518518517
0.0555555555555556 0.0 0.0555555555555556
0.05092592592592591 0.0 0.05092592592592591
0.04629629629629629 0.0 0.04629629629629629
0.04166666666666672 0.0 0.04166666666666672
0.03703703703703703 0.0 0.03703703703703703
0.0324074074074074 0.0 0.0324074074074074
0.02777777777777777 0.0 0.02777777777777777
0.023148148148148143 0.0 0.023148148148148143
0.018518518518518576 0.0 0.018518518518518576
0.013888888888888885 0.0 0.013888888888888885
0.009259259259259257 0.0 0.009259259259259257
0.0046296296296296285 0.0 0.0046296296296296285
0.0 0.0 0.0                    ! \Gamma
%endblock bs_kpoint_list
