Zn  O 
 1.0000000000000000
     1.5920500000000000   -2.7575110000000000    0.0000000000000000
     1.5920500000000000    2.7575110000000000    0.0000000000000000
     0.0000000000000000    0.0000000000000000    5.1551000000000000
   2   2
Cartesian
  1.5920500000000000 -0.9191721716740000  2.5775500000000000
  1.5920500000000000  0.9191721716740000  5.1551000000000000
  1.5920500000000000 -0.9191721716740000  4.5380860810000003
  1.5920500000000000  0.9191721716740000  1.9605360809999999
