Autmatically generated mesh
87
Reciprocal
0.0 0.0 0.0 1 \Gamma
0.25 0.0 0.0 2 
0.5 0.0 0.0 1 
0.0 0.25 0.0 2 
0.25 0.25 0.0 2 
0.5 0.25 0.0 2 
-0.25 0.25 0.0 2 
0.0 0.5 0.0 1 
0.25 0.5 0.0 2 
0.5 0.5 0.0 1 
0.0 0.0 0.25 2 
0.25 0.0 0.25 2 
0.5 0.0 0.25 2 
-0.25 0.0 0.25 2 
0.0 0.25 0.25 2 
0.25 0.25 0.25 2 
0.5 0.25 0.25 2 
-0.25 0.25 0.25 2 
0.0 0.5 0.25 2 
0.25 0.5 0.25 2 
0.5 0.5 0.25 2 
-0.25 0.5 0.25 2 
0.0 -0.25 0.25 2 
0.25 -0.25 0.25 2 
0.5 -0.25 0.25 2 
-0.25 -0.25 0.25 2 
0.0 0.0 0.5 1 
0.25 0.0 0.5 2 
0.5 0.0 0.5 1 X
0.0 0.25 0.5 2 
0.25 0.25 0.5 2 
0.5 0.25 0.5 2 
-0.25 0.25 0.5 2 
0.0 0.5 0.5 1 
0.25 0.5 0.5 2 
0.5 0.5 0.5 1 L
0.5 0.23529412 0.73529412 0 
0.5 0.22058824 0.72058824 0 
0.5 0.20588235 0.70588235 0 
0.5 0.19117647 0.69117647 0 
0.5 0.17647059 0.67647059 0 
0.5 0.16176471 0.66176471 0 
0.5 0.14705882 0.64705882 0 
0.5 0.13235294 0.63235294 0 
0.5 0.11764706 0.61764706 0 
0.5 0.10294118 0.60294118 0 
0.5 0.08823529 0.58823529 0 
0.5 0.07352941 0.57352941 0 
0.5 0.05882353 0.55882353 0 
0.5 0.04411765 0.54411765 0 
0.5 0.02941176 0.52941176 0 
0.5 0.01470588 0.51470588 0 
0.5 0.0 0.5 0 X
0.48529412 0.0 0.48529412 0 
0.47058824 0.0 0.47058824 0 
0.45588235 0.0 0.45588235 0 
0.44117647 0.0 0.44117647 0 
0.42647059 0.0 0.42647059 0 
0.41176471 0.0 0.41176471 0 
0.39705882 0.0 0.39705882 0 
0.38235294 0.0 0.38235294 0 
0.36764706 0.0 0.36764706 0 
0.35294118 0.0 0.35294118 0 
0.33823529 0.0 0.33823529 0 
0.32352941 0.0 0.32352941 0 
0.30882353 0.0 0.30882353 0 
0.29411765 0.0 0.29411765 0 
0.27941176 0.0 0.27941176 0 
0.26470588 0.0 0.26470588 0 
0.25 0.0 0.25 0 
0.23529412 0.0 0.23529412 0 
0.22058824 0.0 0.22058824 0 
0.20588235 0.0 0.20588235 0 
0.19117647 0.0 0.19117647 0 
0.17647059 0.0 0.17647059 0 
0.16176471 0.0 0.16176471 0 
0.14705882 0.0 0.14705882 0 
0.13235294 0.0 0.13235294 0 
0.11764706 0.0 0.11764706 0 
0.10294118 0.0 0.10294118 0 
0.08823529 0.0 0.08823529 0 
0.07352941 0.0 0.07352941 0 
0.05882353 0.0 0.05882353 0 
0.04411765 0.0 0.04411765 0 
0.02941176 0.0 0.02941176 0 
0.01470588 0.0 0.01470588 0 
0.0 0.0 0.0 0 \Gamma
