Autmatically generated mesh
    463
Reciprocal lattice
0.00000000  0.00000000  0.00000000   1
0.00000000  0.00000000  0.00806452   1
0.00000000  0.00000000  0.01612903   1
0.00000000  0.00000000  0.02419355   1
0.00000000  0.00000000  0.03225806   1
0.00000000  0.00000000  0.04032258   1
0.00000000  0.00000000  0.04838710   1
0.00000000  0.00000000  0.05645161   1
0.00000000  0.00000000  0.06451613   1
0.00000000  0.00000000  0.07258065   1
0.00000000  0.00000000  0.08064516   1
0.00000000  0.00000000  0.08870968   1
0.00000000  0.00000000  0.09677419   1
0.00000000  0.00000000  0.10483871   1
0.00000000  0.00000000  0.11290323   1
0.00000000  0.00000000  0.12096774   1
0.00000000  0.00000000  0.12903226   1
0.00000000  0.00000000  0.13709677   1
0.00000000  0.00000000  0.14516129   1
0.00000000  0.00000000  0.15322581   1
0.00000000  0.00000000  0.16129032   1
0.00000000  0.00000000  0.16935484   1
0.00000000  0.00000000  0.17741935   1
0.00000000  0.00000000  0.18548387   1
0.00000000  0.00000000  0.19354839   1
0.00000000  0.00000000  0.20161290   1
0.00000000  0.00000000  0.20967742   1
0.00000000  0.00000000  0.21774194   1
0.00000000  0.00000000  0.22580645   1
0.00000000  0.00000000  0.23387097   1
0.00000000  0.00000000  0.24193548   1
0.00000000  0.00000000  0.25000000   1
0.00000000  0.00000000  0.25806452   1
0.00000000  0.00000000  0.26612903   1
0.00000000  0.00000000  0.27419355   1
0.00000000  0.00000000  0.28225806   1
0.00000000  0.00000000  0.29032258   1
0.00000000  0.00000000  0.29838710   1
0.00000000  0.00000000  0.30645161   1
0.00000000  0.00000000  0.31451613   1
0.00000000  0.00000000  0.32258065   1
0.00000000  0.00000000  0.33064516   1
0.00000000  0.00000000  0.33870968   1
0.00000000  0.00000000  0.34677419   1
0.00000000  0.00000000  0.35483871   1
0.00000000  0.00000000  0.36290323   1
0.00000000  0.00000000  0.37096774   1
0.00000000  0.00000000  0.37903226   1
0.00000000  0.00000000  0.38709677   1
0.00000000  0.00000000  0.39516129   1
0.00000000  0.00000000  0.40322581   1
0.00000000  0.00000000  0.41129032   1
0.00000000  0.00000000  0.41935484   1
0.00000000  0.00000000  0.42741935   1
0.00000000  0.00000000  0.43548387   1
0.00000000  0.00000000  0.44354839   1
0.00000000  0.00000000  0.45161290   1
0.00000000  0.00000000  0.45967742   1
0.00000000  0.00000000  0.46774194   1
0.00000000  0.00000000  0.47580645   1
0.00000000  0.00000000  0.48387097   1
0.00000000  0.00000000  0.49193548   1
0.00000000  0.00000000  0.50000000   1
0.00000000  0.01136364  0.50000000   1
0.00000000  0.02272727  0.50000000   1
0.00000000  0.03409091  0.50000000   1
0.00000000  0.04545455  0.50000000   1
0.00000000  0.05681818  0.50000000   1
0.00000000  0.06818182  0.50000000   1
0.00000000  0.07954545  0.50000000   1
0.00000000  0.09090909  0.50000000   1
0.00000000  0.10227273  0.50000000   1
0.00000000  0.11363636  0.50000000   1
0.00000000  0.12500000  0.50000000   1
0.00000000  0.13636364  0.50000000   1
0.00000000  0.14772727  0.50000000   1
0.00000000  0.15909091  0.50000000   1
0.00000000  0.17045455  0.50000000   1
0.00000000  0.18181818  0.50000000   1
0.00000000  0.19318182  0.50000000   1
0.00000000  0.20454545  0.50000000   1
0.00000000  0.21590909  0.50000000   1
0.00000000  0.22727273  0.50000000   1
0.00000000  0.23863636  0.50000000   1
0.00000000  0.25000000  0.50000000   1
0.00000000  0.26136364  0.50000000   1
0.00000000  0.27272727  0.50000000   1
0.00000000  0.28409091  0.50000000   1
0.00000000  0.29545455  0.50000000   1
0.00000000  0.30681818  0.50000000   1
0.00000000  0.31818182  0.50000000   1
0.00000000  0.32954545  0.50000000   1
0.00000000  0.34090909  0.50000000   1
0.00000000  0.35227273  0.50000000   1
0.00000000  0.36363636  0.50000000   1
0.00000000  0.37500000  0.50000000   1
0.00000000  0.38636364  0.50000000   1
0.00000000  0.39772727  0.50000000   1
0.00000000  0.40909091  0.50000000   1
0.00000000  0.42045455  0.50000000   1
0.00000000  0.43181818  0.50000000   1
0.00000000  0.44318182  0.50000000   1
0.00000000  0.45454545  0.50000000   1
0.00000000  0.46590909  0.50000000   1
0.00000000  0.47727273  0.50000000   1
0.00000000  0.48863636  0.50000000   1
0.00000000  0.50000000  0.50000000   1
0.00000000  0.50000000  0.49193548   1
0.00000000  0.50000000  0.48387097   1
0.00000000  0.50000000  0.47580645   1
0.00000000  0.50000000  0.46774194   1
0.00000000  0.50000000  0.45967742   1
0.00000000  0.50000000  0.45161290   1
0.00000000  0.50000000  0.44354839   1
0.00000000  0.50000000  0.43548387   1
0.00000000  0.50000000  0.42741935   1
0.00000000  0.50000000  0.41935484   1
0.00000000  0.50000000  0.41129032   1
0.00000000  0.50000000  0.40322581   1
0.00000000  0.50000000  0.39516129   1
0.00000000  0.50000000  0.38709677   1
0.00000000  0.50000000  0.37903226   1
0.00000000  0.50000000  0.37096774   1
0.00000000  0.50000000  0.36290323   1
0.00000000  0.50000000  0.35483871   1
0.00000000  0.50000000  0.34677419   1
0.00000000  0.50000000  0.33870968   1
0.00000000  0.50000000  0.33064516   1
0.00000000  0.50000000  0.32258065   1
0.00000000  0.50000000  0.31451613   1
0.00000000  0.50000000  0.30645161   1
0.00000000  0.50000000  0.29838710   1
0.00000000  0.50000000  0.29032258   1
0.00000000  0.50000000  0.28225806   1
0.00000000  0.50000000  0.27419355   1
0.00000000  0.50000000  0.26612903   1
0.00000000  0.50000000  0.25806452   1
0.00000000  0.50000000  0.25000000   1
0.00000000  0.50000000  0.24193548   1
0.00000000  0.50000000  0.23387097   1
0.00000000  0.50000000  0.22580645   1
0.00000000  0.50000000  0.21774194   1
0.00000000  0.50000000  0.20967742   1
0.00000000  0.50000000  0.20161290   1
0.00000000  0.50000000  0.19354839   1
0.00000000  0.50000000  0.18548387   1
0.00000000  0.50000000  0.17741935   1
0.00000000  0.50000000  0.16935484   1
0.00000000  0.50000000  0.16129032   1
0.00000000  0.50000000  0.15322581   1
0.00000000  0.50000000  0.14516129   1
0.00000000  0.50000000  0.13709677   1
0.00000000  0.50000000  0.12903226   1
0.00000000  0.50000000  0.12096774   1
0.00000000  0.50000000  0.11290323   1
0.00000000  0.50000000  0.10483871   1
0.00000000  0.50000000  0.09677419   1
0.00000000  0.50000000  0.08870968   1
0.00000000  0.50000000  0.08064516   1
0.00000000  0.50000000  0.07258065   1
0.00000000  0.50000000  0.06451613   1
0.00000000  0.50000000  0.05645161   1
0.00000000  0.50000000  0.04838710   1
0.00000000  0.50000000  0.04032258   1
0.00000000  0.50000000  0.03225806   1
0.00000000  0.50000000  0.02419355   1
0.00000000  0.50000000  0.01612903   1
0.00000000  0.50000000  0.00806452   1
0.00000000  0.50000000  0.00000000   1
0.01136364  0.50000000  0.00000000   1
0.02272727  0.50000000  0.00000000   1
0.03409091  0.50000000  0.00000000   1
0.04545455  0.50000000  0.00000000   1
0.05681818  0.50000000  0.00000000   1
0.06818182  0.50000000  0.00000000   1
0.07954545  0.50000000  0.00000000   1
0.09090909  0.50000000  0.00000000   1
0.10227273  0.50000000  0.00000000   1
0.11363636  0.50000000  0.00000000   1
0.12500000  0.50000000  0.00000000   1
0.13636364  0.50000000  0.00000000   1
0.14772727  0.50000000  0.00000000   1
0.15909091  0.50000000  0.00000000   1
0.17045455  0.50000000  0.00000000   1
0.18181818  0.50000000  0.00000000   1
0.19318182  0.50000000  0.00000000   1
0.20454545  0.50000000  0.00000000   1
0.21590909  0.50000000  0.00000000   1
0.22727273  0.50000000  0.00000000   1
0.23863636  0.50000000  0.00000000   1
0.25000000  0.50000000  0.00000000   1
0.26136364  0.50000000  0.00000000   1
0.27272727  0.50000000  0.00000000   1
0.28409091  0.50000000  0.00000000   1
0.29545455  0.50000000  0.00000000   1
0.30681818  0.50000000  0.00000000   1
0.31818182  0.50000000  0.00000000   1
0.32954545  0.50000000  0.00000000   1
0.34090909  0.50000000  0.00000000   1
0.35227273  0.50000000  0.00000000   1
0.36363636  0.50000000  0.00000000   1
0.37500000  0.50000000  0.00000000   1
0.38636364  0.50000000  0.00000000   1
0.39772727  0.50000000  0.00000000   1
0.40909091  0.50000000  0.00000000   1
0.42045455  0.50000000  0.00000000   1
0.43181818  0.50000000  0.00000000   1
0.44318182  0.50000000  0.00000000   1
0.45454545  0.50000000  0.00000000   1
0.46590909  0.50000000  0.00000000   1
0.47727273  0.50000000  0.00000000   1
0.48863636  0.50000000  0.00000000   1
0.50000000  0.50000000  0.00000000   1
0.50000000  0.50000000  0.00806452   1
0.50000000  0.50000000  0.01612903   1
0.50000000  0.50000000  0.02419355   1
0.50000000  0.50000000  0.03225806   1
0.50000000  0.50000000  0.04032258   1
0.50000000  0.50000000  0.04838710   1
0.50000000  0.50000000  0.05645161   1
0.50000000  0.50000000  0.06451613   1
0.50000000  0.50000000  0.07258065   1
0.50000000  0.50000000  0.08064516   1
0.50000000  0.50000000  0.08870968   1
0.50000000  0.50000000  0.09677419   1
0.50000000  0.50000000  0.10483871   1
0.50000000  0.50000000  0.11290323   1
0.50000000  0.50000000  0.12096774   1
0.50000000  0.50000000  0.12903226   1
0.50000000  0.50000000  0.13709677   1
0.50000000  0.50000000  0.14516129   1
0.50000000  0.50000000  0.15322581   1
0.50000000  0.50000000  0.16129032   1
0.50000000  0.50000000  0.16935484   1
0.50000000  0.50000000  0.17741935   1
0.50000000  0.50000000  0.18548387   1
0.50000000  0.50000000  0.19354839   1
0.50000000  0.50000000  0.20161290   1
0.50000000  0.50000000  0.20967742   1
0.50000000  0.50000000  0.21774194   1
0.50000000  0.50000000  0.22580645   1
0.50000000  0.50000000  0.23387097   1
0.50000000  0.50000000  0.24193548   1
0.50000000  0.50000000  0.25000000   1
0.50000000  0.50000000  0.25806452   1
0.50000000  0.50000000  0.26612903   1
0.50000000  0.50000000  0.27419355   1
0.50000000  0.50000000  0.28225806   1
0.50000000  0.50000000  0.29032258   1
0.50000000  0.50000000  0.29838710   1
0.50000000  0.50000000  0.30645161   1
0.50000000  0.50000000  0.31451613   1
0.50000000  0.50000000  0.32258065   1
0.50000000  0.50000000  0.33064516   1
0.50000000  0.50000000  0.33870968   1
0.50000000  0.50000000  0.34677419   1
0.50000000  0.50000000  0.35483871   1
0.50000000  0.50000000  0.36290323   1
0.50000000  0.50000000  0.37096774   1
0.50000000  0.50000000  0.37903226   1
0.50000000  0.50000000  0.38709677   1
0.50000000  0.50000000  0.39516129   1
0.50000000  0.50000000  0.40322581   1
0.50000000  0.50000000  0.41129032   1
0.50000000  0.50000000  0.41935484   1
0.50000000  0.50000000  0.42741935   1
0.50000000  0.50000000  0.43548387   1
0.50000000  0.50000000  0.44354839   1
0.50000000  0.50000000  0.45161290   1
0.50000000  0.50000000  0.45967742   1
0.50000000  0.50000000  0.46774194   1
0.50000000  0.50000000  0.47580645   1
0.50000000  0.50000000  0.48387097   1
0.50000000  0.50000000  0.49193548   1
0.50000000  0.50000000  0.50000000   1
0.49206349  0.49206349  0.50000000   1
0.48412698  0.48412698  0.50000000   1
0.47619048  0.47619048  0.50000000   1
0.46825397  0.46825397  0.50000000   1
0.46031746  0.46031746  0.50000000   1
0.45238095  0.45238095  0.50000000   1
0.44444444  0.44444444  0.50000000   1
0.43650794  0.43650794  0.50000000   1
0.42857143  0.42857143  0.50000000   1
0.42063492  0.42063492  0.50000000   1
0.41269841  0.41269841  0.50000000   1
0.40476190  0.40476190  0.50000000   1
0.39682540  0.39682540  0.50000000   1
0.38888889  0.38888889  0.50000000   1
0.38095238  0.38095238  0.50000000   1
0.37301587  0.37301587  0.50000000   1
0.36507937  0.36507937  0.50000000   1
0.35714286  0.35714286  0.50000000   1
0.34920635  0.34920635  0.50000000   1
0.34126984  0.34126984  0.50000000   1
0.33333333  0.33333333  0.50000000   1
0.32539683  0.32539683  0.50000000   1
0.31746032  0.31746032  0.50000000   1
0.30952381  0.30952381  0.50000000   1
0.30158730  0.30158730  0.50000000   1
0.29365079  0.29365079  0.50000000   1
0.28571429  0.28571429  0.50000000   1
0.27777778  0.27777778  0.50000000   1
0.26984127  0.26984127  0.50000000   1
0.26190476  0.26190476  0.50000000   1
0.25396825  0.25396825  0.50000000   1
0.24603175  0.24603175  0.50000000   1
0.23809524  0.23809524  0.50000000   1
0.23015873  0.23015873  0.50000000   1
0.22222222  0.22222222  0.50000000   1
0.21428571  0.21428571  0.50000000   1
0.20634921  0.20634921  0.50000000   1
0.19841270  0.19841270  0.50000000   1
0.19047619  0.19047619  0.50000000   1
0.18253968  0.18253968  0.50000000   1
0.17460317  0.17460317  0.50000000   1
0.16666667  0.16666667  0.50000000   1
0.15873016  0.15873016  0.50000000   1
0.15079365  0.15079365  0.50000000   1
0.14285714  0.14285714  0.50000000   1
0.13492063  0.13492063  0.50000000   1
0.12698413  0.12698413  0.50000000   1
0.11904762  0.11904762  0.50000000   1
0.11111111  0.11111111  0.50000000   1
0.10317460  0.10317460  0.50000000   1
0.09523810  0.09523810  0.50000000   1
0.08730159  0.08730159  0.50000000   1
0.07936508  0.07936508  0.50000000   1
0.07142857  0.07142857  0.50000000   1
0.06349206  0.06349206  0.50000000   1
0.05555556  0.05555556  0.50000000   1
0.04761905  0.04761905  0.50000000   1
0.03968254  0.03968254  0.50000000   1
0.03174603  0.03174603  0.50000000   1
0.02380952  0.02380952  0.50000000   1
0.01587302  0.01587302  0.50000000   1
0.00793651  0.00793651  0.50000000   1
0.00000000  0.00000000  0.50000000   1
0.00000000  0.00000000  0.49193548   1
0.00000000  0.00000000  0.48387097   1
0.00000000  0.00000000  0.47580645   1
0.00000000  0.00000000  0.46774194   1
0.00000000  0.00000000  0.45967742   1
0.00000000  0.00000000  0.45161290   1
0.00000000  0.00000000  0.44354839   1
0.00000000  0.00000000  0.43548387   1
0.00000000  0.00000000  0.42741935   1
0.00000000  0.00000000  0.41935484   1
0.00000000  0.00000000  0.41129032   1
0.00000000  0.00000000  0.40322581   1
0.00000000  0.00000000  0.39516129   1
0.00000000  0.00000000  0.38709677   1
0.00000000  0.00000000  0.37903226   1
0.00000000  0.00000000  0.37096774   1
0.00000000  0.00000000  0.36290323   1
0.00000000  0.00000000  0.35483871   1
0.00000000  0.00000000  0.34677419   1
0.00000000  0.00000000  0.33870968   1
0.00000000  0.00000000  0.33064516   1
0.00000000  0.00000000  0.32258065   1
0.00000000  0.00000000  0.31451613   1
0.00000000  0.00000000  0.30645161   1
0.00000000  0.00000000  0.29838710   1
0.00000000  0.00000000  0.29032258   1
0.00000000  0.00000000  0.28225806   1
0.00000000  0.00000000  0.27419355   1
0.00000000  0.00000000  0.26612903   1
0.00000000  0.00000000  0.25806452   1
0.00000000  0.00000000  0.25000000   1
0.00000000  0.00000000  0.24193548   1
0.00000000  0.00000000  0.23387097   1
0.00000000  0.00000000  0.22580645   1
0.00000000  0.00000000  0.21774194   1
0.00000000  0.00000000  0.20967742   1
0.00000000  0.00000000  0.20161290   1
0.00000000  0.00000000  0.19354839   1
0.00000000  0.00000000  0.18548387   1
0.00000000  0.00000000  0.17741935   1
0.00000000  0.00000000  0.16935484   1
0.00000000  0.00000000  0.16129032   1
0.00000000  0.00000000  0.15322581   1
0.00000000  0.00000000  0.14516129   1
0.00000000  0.00000000  0.13709677   1
0.00000000  0.00000000  0.12903226   1
0.00000000  0.00000000  0.12096774   1
0.00000000  0.00000000  0.11290323   1
0.00000000  0.00000000  0.10483871   1
0.00000000  0.00000000  0.09677419   1
0.00000000  0.00000000  0.08870968   1
0.00000000  0.00000000  0.08064516   1
0.00000000  0.00000000  0.07258065   1
0.00000000  0.00000000  0.06451613   1
0.00000000  0.00000000  0.05645161   1
0.00000000  0.00000000  0.04838710   1
0.00000000  0.00000000  0.04032258   1
0.00000000  0.00000000  0.03225806   1
0.00000000  0.00000000  0.02419355   1
0.00000000  0.00000000  0.01612903   1
0.00000000  0.00000000  0.00806452   1
0.00000000  0.00000000  0.00000000   1
0.00793651  0.00793651  0.00000000   1
0.01587302  0.01587302  0.00000000   1
0.02380952  0.02380952  0.00000000   1
0.03174603  0.03174603  0.00000000   1
0.03968254  0.03968254  0.00000000   1
0.04761905  0.04761905  0.00000000   1
0.05555556  0.05555556  0.00000000   1
0.06349206  0.06349206  0.00000000   1
0.07142857  0.07142857  0.00000000   1
0.07936508  0.07936508  0.00000000   1
0.08730159  0.08730159  0.00000000   1
0.09523810  0.09523810  0.00000000   1
0.10317460  0.10317460  0.00000000   1
0.11111111  0.11111111  0.00000000   1
0.11904762  0.11904762  0.00000000   1
0.12698413  0.12698413  0.00000000   1
0.13492063  0.13492063  0.00000000   1
0.14285714  0.14285714  0.00000000   1
0.15079365  0.15079365  0.00000000   1
0.15873016  0.15873016  0.00000000   1
0.16666667  0.16666667  0.00000000   1
0.17460317  0.17460317  0.00000000   1
0.18253968  0.18253968  0.00000000   1
0.19047619  0.19047619  0.00000000   1
0.19841270  0.19841270  0.00000000   1
0.20634921  0.20634921  0.00000000   1
0.21428571  0.21428571  0.00000000   1
0.22222222  0.22222222  0.00000000   1
0.23015873  0.23015873  0.00000000   1
0.23809524  0.23809524  0.00000000   1
0.24603175  0.24603175  0.00000000   1
0.25396825  0.25396825  0.00000000   1
0.26190476  0.26190476  0.00000000   1
0.26984127  0.26984127  0.00000000   1
0.27777778  0.27777778  0.00000000   1
0.28571429  0.28571429  0.00000000   1
0.29365079  0.29365079  0.00000000   1
0.30158730  0.30158730  0.00000000   1
0.30952381  0.30952381  0.00000000   1
0.31746032  0.31746032  0.00000000   1
0.32539683  0.32539683  0.00000000   1
0.33333333  0.33333333  0.00000000   1
0.34126984  0.34126984  0.00000000   1
0.34920635  0.34920635  0.00000000   1
0.35714286  0.35714286  0.00000000   1
0.36507937  0.36507937  0.00000000   1
0.37301587  0.37301587  0.00000000   1
0.38095238  0.38095238  0.00000000   1
0.38888889  0.38888889  0.00000000   1
0.39682540  0.39682540  0.00000000   1
0.40476190  0.40476190  0.00000000   1
0.41269841  0.41269841  0.00000000   1
0.42063492  0.42063492  0.00000000   1
0.42857143  0.42857143  0.00000000   1
0.43650794  0.43650794  0.00000000   1
0.44444444  0.44444444  0.00000000   1
0.45238095  0.45238095  0.00000000   1
0.46031746  0.46031746  0.00000000   1
0.46825397  0.46825397  0.00000000   1
0.47619048  0.47619048  0.00000000   1
0.48412698  0.48412698  0.00000000   1
0.49206349  0.49206349  0.00000000   1
0.50000000  0.50000000  0.00000000   1
