symmetry_tol            : 0.001000
kpoint_mp_grid          : 4 4 4
phonon_kpoint_mp_grid   : 3 3 3

%block lattice_cart
ANG
0.00000000000000 2.71000000000000 2.71000000000000
2.71000000000000 0.00000000000000 2.71000000000000
2.71000000000000 2.71000000000000 0.00000000000000
%endblock lattice_cart

%block cell_constraints
0 0 0
0 0 0
%endblock cell_constraints

%block positions_frac
S 0.250000000000000 0.250000000000000 0.250000000000000
Zn 0.000000000000000 0.000000000000000 0.000000000000000
%endblock positions_frac

%block ionic_constraints
%endblock ionic_constraints

%block species_pot
S 1|1.8|6|7|8|30N:31L:32N
Zn 3|1.8|24|28|32|40N:41N:32N1.5(qc=4.5,q2=9.5)
%endblock species_pot

%block symmetry_ops
1.000000000000000 0.000000000000000 0.000000000000000
0.000000000000000 1.000000000000000 -0.000000000000000
-0.000000000000000 -0.000000000000000 1.000000000000000
0.000000000000000 0.000000000000000 0.000000000000000
-0.000000000000000 -0.000000000000000 1.000000000000000
-0.000000000000000 -1.000000000000000 0.000000000000000
-1.000000000000000 -0.000000000000000 -0.000000000000000
0.000000000000000 0.000000000000000 0.000000000000000
-1.000000000000000 -0.000000000000000 -0.000000000000000
0.000000000000000 1.000000000000000 -0.000000000000000
0.000000000000000 0.000000000000000 -1.000000000000000
0.000000000000000 0.000000000000000 0.000000000000000
0.000000000000000 0.000000000000000 -1.000000000000000
-0.000000000000000 -1.000000000000000 0.000000000000000
1.000000000000000 0.000000000000000 0.000000000000000
0.000000000000000 0.000000000000000 0.000000000000000
1.000000000000000 0.000000000000000 0.000000000000000
-0.000000000000000 -1.000000000000000 0.000000000000000
0.000000000000000 0.000000000000000 -1.000000000000000
0.000000000000000 0.000000000000000 0.000000000000000
0.000000000000000 0.000000000000000 -1.000000000000000
0.000000000000000 1.000000000000000 -0.000000000000000
-1.000000000000000 -0.000000000000000 -0.000000000000000
0.000000000000000 0.000000000000000 0.000000000000000
-1.000000000000000 -0.000000000000000 -0.000000000000000
-0.000000000000000 -1.000000000000000 0.000000000000000
-0.000000000000000 -0.000000000000000 1.000000000000000
0.000000000000000 0.000000000000000 0.000000000000000
-0.000000000000000 -0.000000000000000 1.000000000000000
0.000000000000000 1.000000000000000 -0.000000000000000
1.000000000000000 0.000000000000000 0.000000000000000
0.000000000000000 0.000000000000000 0.000000000000000
0.000000000000000 0.000000000000000 -1.000000000000000
1.000000000000000 0.000000000000000 0.000000000000000
-0.000000000000000 -1.000000000000000 0.000000000000000
0.000000000000000 0.000000000000000 0.000000000000000
-0.000000000000000 -1.000000000000000 0.000000000000000
-1.000000000000000 -0.000000000000000 -0.000000000000000
-0.000000000000000 -0.000000000000000 1.000000000000000
0.000000000000000 0.000000000000000 0.000000000000000
-0.000000000000000 -0.000000000000000 1.000000000000000
1.000000000000000 0.000000000000000 0.000000000000000
0.000000000000000 1.000000000000000 -0.000000000000000
0.000000000000000 0.000000000000000 0.000000000000000
0.000000000000000 1.000000000000000 -0.000000000000000
-1.000000000000000 -0.000000000000000 -0.000000000000000
0.000000000000000 0.000000000000000 -1.000000000000000
0.000000000000000 0.000000000000000 0.000000000000000
0.000000000000000 0.000000000000000 -1.000000000000000
-1.000000000000000 -0.000000000000000 -0.000000000000000
0.000000000000000 1.000000000000000 -0.000000000000000
0.000000000000000 0.000000000000000 0.000000000000000
0.000000000000000 1.000000000000000 -0.000000000000000
1.000000000000000 0.000000000000000 0.000000000000000
-0.000000000000000 -0.000000000000000 1.000000000000000
0.000000000000000 0.000000000000000 0.000000000000000
-0.000000000000000 -0.000000000000000 1.000000000000000
-1.000000000000000 -0.000000000000000 -0.000000000000000
-0.000000000000000 -1.000000000000000 0.000000000000000
0.000000000000000 0.000000000000000 0.000000000000000
-0.000000000000000 -1.000000000000000 0.000000000000000
1.000000000000000 0.000000000000000 0.000000000000000
0.000000000000000 0.000000000000000 -1.000000000000000
0.000000000000000 0.000000000000000 0.000000000000000
0.000000000000000 1.000000000000000 -0.000000000000000
0.000000000000000 0.000000000000000 -1.000000000000000
-1.000000000000000 -0.000000000000000 -0.000000000000000
0.000000000000000 0.000000000000000 0.000000000000000
-1.000000000000000 -0.000000000000000 -0.000000000000000
-0.000000000000000 -0.000000000000000 1.000000000000000
-0.000000000000000 -1.000000000000000 0.000000000000000
0.000000000000000 0.000000000000000 0.000000000000000
-0.000000000000000 -1.000000000000000 0.000000000000000
0.000000000000000 0.000000000000000 -1.000000000000000
1.000000000000000 0.000000000000000 0.000000000000000
0.000000000000000 0.000000000000000 0.000000000000000
1.000000000000000 0.000000000000000 0.000000000000000
-0.000000000000000 -0.000000000000000 1.000000000000000
0.000000000000000 1.000000000000000 -0.000000000000000
0.000000000000000 0.000000000000000 0.000000000000000
0.000000000000000 1.000000000000000 -0.000000000000000
-0.000000000000000 -0.000000000000000 1.000000000000000
1.000000000000000 0.000000000000000 0.000000000000000
0.000000000000000 0.000000000000000 0.000000000000000
1.000000000000000 0.000000000000000 0.000000000000000
0.000000000000000 0.000000000000000 -1.000000000000000
-0.000000000000000 -1.000000000000000 0.000000000000000
0.000000000000000 0.000000000000000 0.000000000000000
-0.000000000000000 -1.000000000000000 0.000000000000000
-0.000000000000000 -0.000000000000000 1.000000000000000
-1.000000000000000 -0.000000000000000 -0.000000000000000
0.000000000000000 0.000000000000000 0.000000000000000
-1.000000000000000 -0.000000000000000 -0.000000000000000
0.000000000000000 0.000000000000000 -1.000000000000000
0.000000000000000 1.000000000000000 -0.000000000000000
0.000000000000000 0.000000000000000 0.000000000000000
%endblock symmetry_ops

%block phonon_fine_kpoint_list
0.0 0.0 0.0                    ! \Gamma
0.007142857142857143 0.0 0.007142857142857143
0.014285714285714285 0.0 0.014285714285714285
0.02142857142857143 0.0 0.02142857142857143
0.02857142857142857 0.0 0.02857142857142857
0.03571428571428571 0.0 0.03571428571428571
0.04285714285714286 0.0 0.04285714285714286
0.05 0.0 0.05
0.05714285714285714 0.0 0.05714285714285714
0.06428571428571428 0.0 0.06428571428571428
0.07142857142857142 0.0 0.07142857142857142
0.07857142857142857 0.0 0.07857142857142857
0.08571428571428572 0.0 0.08571428571428572
0.09285714285714286 0.0 0.09285714285714286
0.1 0.0 0.1
0.10714285714285714 0.0 0.10714285714285714
0.11428571428571428 0.0 0.11428571428571428
0.12142857142857143 0.0 0.12142857142857143
0.12857142857142856 0.0 0.12857142857142856
0.1357142857142857 0.0 0.1357142857142857
0.14285714285714285 0.0 0.14285714285714285
0.15 0.0 0.15
0.15714285714285714 0.0 0.15714285714285714
0.16428571428571428 0.0 0.16428571428571428
0.17142857142857143 0.0 0.17142857142857143
0.17857142857142858 0.0 0.17857142857142858
0.18571428571428572 0.0 0.18571428571428572
0.19285714285714284 0.0 0.19285714285714284
0.2 0.0 0.2
0.20714285714285716 0.0 0.20714285714285716
0.21428571428571427 0.0 0.21428571428571427
0.2214285714285714 0.0 0.2214285714285714
0.22857142857142856 0.0 0.22857142857142856
0.23571428571428568 0.0 0.23571428571428568
0.24285714285714285 0.0 0.24285714285714285
0.25 0.0 0.25
0.2571428571428571 0.0 0.2571428571428571
0.2642857142857143 0.0 0.2642857142857143
0.2714285714285714 0.0 0.2714285714285714
0.2785714285714286 0.0 0.2785714285714286
0.2857142857142857 0.0 0.2857142857142857
0.29285714285714287 0.0 0.29285714285714287
0.3 0.0 0.3
0.3071428571428571 0.0 0.3071428571428571
0.3142857142857143 0.0 0.3142857142857143
0.32142857142857145 0.0 0.32142857142857145
0.32857142857142857 0.0 0.32857142857142857
0.3357142857142857 0.0 0.3357142857142857
0.34285714285714286 0.0 0.34285714285714286
0.35 0.0 0.35
0.35714285714285715 0.0 0.35714285714285715
0.36428571428571427 0.0 0.36428571428571427
0.37142857142857144 0.0 0.37142857142857144
0.3785714285714285 0.0 0.3785714285714285
0.3857142857142857 0.0 0.3857142857142857
0.39285714285714285 0.0 0.39285714285714285
0.4 0.0 0.4
0.40714285714285714 0.0 0.40714285714285714
0.4142857142857143 0.0 0.4142857142857143
0.42142857142857143 0.0 0.42142857142857143
0.42857142857142855 0.0 0.42857142857142855
0.43571428571428567 0.0 0.43571428571428567
0.4428571428571428 0.0 0.4428571428571428
0.45 0.0 0.45
0.45714285714285713 0.0 0.45714285714285713
0.46428571428571425 0.0 0.46428571428571425
0.47142857142857136 0.0 0.47142857142857136
0.4785714285714286 0.0 0.4785714285714286
0.4857142857142857 0.0 0.4857142857142857
0.4928571428571429 0.0 0.4928571428571429
0.5 0.0 0.5                    ! X
0.5 0.007142857142857141 0.5071428571428571
0.5 0.014285714285714282 0.5142857142857142
0.5 0.021428571428571425 0.5214285714285715
0.5 0.028571428571428564 0.5285714285714286
0.5 0.035714285714285705 0.5357142857142857
0.5 0.04285714285714285 0.5428571428571428
0.5 0.049999999999999996 0.55
0.5 0.05714285714285713 0.5571428571428572
0.5 0.06428571428571427 0.5642857142857143
0.5 0.07142857142857141 0.5714285714285714
0.5 0.07857142857142856 0.5785714285714285
0.5 0.0857142857142857 0.5857142857142857
0.5 0.09285714285714283 0.5928571428571429
0.5 0.09999999999999999 0.6
0.5 0.10714285714285711 0.6071428571428571
0.5 0.11428571428571425 0.6142857142857142
0.5 0.12142857142857141 0.6214285714285714
0.5 0.12857142857142853 0.6285714285714286
0.5 0.13571428571428568 0.6357142857142857
0.5 0.14285714285714282 0.6428571428571428
0.5 0.14999999999999997 0.6499999999999999
0.5 0.1571428571428571 0.6571428571428571
0.5 0.16428571428571426 0.6642857142857143
0.5 0.1714285714285714 0.6714285714285714
0.5 0.17857142857142852 0.6785714285714285
0.5 0.18571428571428567 0.6857142857142857
0.5 0.19285714285714284 0.6928571428571428
0.5 0.19999999999999998 0.7
0.5 0.2071428571428571 0.7071428571428571
0.5 0.21428571428571422 0.7142857142857142
0.5 0.22142857142857134 0.7214285714285713
0.5 0.2285714285714285 0.7285714285714285
0.5 0.23571428571428565 0.7357142857142857
0.5 0.24285714285714283 0.7428571428571429
0.5 0.24999999999999994 0.75   ! W
0.49499999999999994 0.25499999999999995 0.7499999999999999
0.48999999999999994 0.25999999999999995 0.7499999999999999
0.48499999999999993 0.26499999999999996 0.7499999999999999
0.48000000000000004 0.26999999999999996 0.75
0.475 0.2749999999999999 0.7499999999999999
0.47 0.27999999999999997 0.75
0.46499999999999997 0.285 0.75
0.45999999999999996 0.29 0.75
0.45499999999999996 0.29499999999999993 0.7499999999999999
0.45 0.3 0.75
0.445 0.30499999999999994 0.75
0.44 0.30999999999999994 0.75
0.43499999999999994 0.31499999999999995 0.7499999999999999
0.42999999999999994 0.31999999999999995 0.7499999999999999
0.425 0.32499999999999996 0.75
0.42 0.32999999999999996 0.75
0.4149999999999999 0.33499999999999996 0.7499999999999999
0.41 0.33999999999999997 0.75
0.40499999999999997 0.345 0.75
0.39999999999999997 0.35 0.75
0.39499999999999996 0.3549999999999999 0.7499999999999999
0.38999999999999996 0.36 0.75
0.385 0.36499999999999994 0.75
0.38 0.36999999999999994 0.75
0.37499999999999994 0.37499999999999994 0.7499999999999999 ! K
0.3699324324324324 0.3699324324324324 0.7398648648648648
0.3648648648648648 0.3648648648648648 0.7297297297297296
0.35979729729729726 0.35979729729729726 0.7195945945945945
0.35472972972972966 0.35472972972972966 0.7094594594594593
0.3496621621621621 0.3496621621621621 0.6993243243243242
0.3445945945945945 0.3445945945945945 0.689189189189189
0.339527027027027 0.339527027027027 0.679054054054054
0.3344594594594594 0.3344594594594594 0.6689189189189187
0.32939189189189183 0.32939189189189183 0.6587837837837837
0.3243243243243243 0.3243243243243243 0.6486486486486486
0.3192567567567567 0.3192567567567567 0.6385135135135134
0.31418918918918914 0.31418918918918914 0.6283783783783783
0.3091216216216216 0.3091216216216216 0.6182432432432432
0.304054054054054 0.304054054054054 0.608108108108108
0.29898648648648646 0.29898648648648646 0.5979729729729729
0.29391891891891886 0.29391891891891886 0.5878378378378377
0.2888513513513513 0.2888513513513513 0.5777027027027026
0.28378378378378377 0.28378378378378377 0.5675675675675675
0.2787162162162162 0.2787162162162162 0.5574324324324323
0.27364864864864863 0.27364864864864863 0.5472972972972973
0.2685810810810811 0.2685810810810811 0.5371621621621622
0.2635135135135135 0.2635135135135135 0.527027027027027
0.25844594594594594 0.25844594594594594 0.5168918918918919
0.2533783783783784 0.2533783783783784 0.5067567567567568
0.24831081081081083 0.24831081081081083 0.49662162162162166
0.24324324324324317 0.24324324324324317 0.48648648648648635
0.23817567567567563 0.23817567567567563 0.47635135135135126
0.2331081081081081 0.2331081081081081 0.4662162162162162
0.22804054054054054 0.22804054054054054 0.4560810810810811
0.22297297297297294 0.22297297297297294 0.4459459459459459
0.21790540540540534 0.21790540540540534 0.4358108108108107
0.2128378378378378 0.2128378378378378 0.4256756756756756
0.20777027027027026 0.20777027027027026 0.4155405405405405
0.20270270270270266 0.20270270270270266 0.4054054054054053
0.19763513513513511 0.19763513513513511 0.39527027027027023
0.19256756756756752 0.19256756756756752 0.38513513513513503
0.18749999999999997 0.18749999999999997 0.37499999999999994
0.18243243243243243 0.18243243243243243 0.36486486486486486
0.17736486486486486 0.17736486486486486 0.3547297297297297
0.17229729729729726 0.17229729729729726 0.3445945945945945
0.1672297297297297 0.1672297297297297 0.3344594594594594
0.16216216216216214 0.16216216216216214 0.3243243243243243
0.1570945945945946 0.1570945945945946 0.3141891891891892
0.152027027027027 0.152027027027027 0.304054054054054
0.14695945945945943 0.14695945945945943 0.29391891891891886
0.14189189189189189 0.14189189189189189 0.28378378378378377
0.13682432432432431 0.13682432432432431 0.27364864864864863
0.13175675675675674 0.13175675675675674 0.2635135135135135
0.1266891891891892 0.1266891891891892 0.2533783783783784
0.12162162162162164 0.12162162162162164 0.24324324324324328
0.11655405405405404 0.11655405405405404 0.2331081081081081
0.11148648648648646 0.11148648648648646 0.22297297297297292
0.1064189189189189 0.1064189189189189 0.2128378378378378
0.10135135135135136 0.10135135135135136 0.20270270270270271
0.09628378378378381 0.09628378378378381 0.19256756756756763
0.09121621621621617 0.09121621621621617 0.18243243243243235
0.08614864864864863 0.08614864864864863 0.17229729729729726
0.08108108108108107 0.08108108108108107 0.16216216216216214
0.07601351351351353 0.07601351351351353 0.15202702702702706
0.07094594594594594 0.07094594594594594 0.14189189189189189
0.06587837837837834 0.06587837837837834 0.1317567567567567
0.06081081081081079 0.06081081081081079 0.12162162162162159
0.05574324324324325 0.05574324324324325 0.1114864864864865
0.05067567567567566 0.05067567567567566 0.10135135135135132
0.04560810810810811 0.04560810810810811 0.09121621621621621
0.040540540540540564 0.040540540540540564 0.08108108108108113
0.03547297297297297 0.03547297297297297 0.07094594594594594
0.030405405405405372 0.030405405405405372 0.060810810810810745
0.02533783783783783 0.02533783783783783 0.05067567567567566
0.020270270270270282 0.020270270270270282 0.040540540540540564
0.015202702702702735 0.015202702702702735 0.03040540540540547
0.010135135135135092 0.010135135135135092 0.020270270270270185
0.005067567567567546 0.005067567567567546 0.010135135135135092
0.0 0.0 0.0                    ! \Gamma
0.00819672131147541 0.00819672131147541 0.00819672131147541
0.01639344262295082 0.01639344262295082 0.01639344262295082
0.02459016393442623 0.02459016393442623 0.02459016393442623
0.03278688524590164 0.03278688524590164 0.03278688524590164
0.040983606557377046 0.040983606557377046 0.040983606557377046
0.04918032786885246 0.04918032786885246 0.04918032786885246
0.05737704918032787 0.05737704918032787 0.05737704918032787
0.06557377049180328 0.06557377049180328 0.06557377049180328
0.07377049180327867 0.07377049180327867 0.07377049180327867
0.08196721311475409 0.08196721311475409 0.08196721311475409
0.09016393442622951 0.09016393442622951 0.09016393442622951
0.09836065573770492 0.09836065573770492 0.09836065573770492
0.10655737704918032 0.10655737704918032 0.10655737704918032
0.11475409836065574 0.11475409836065574 0.11475409836065574
0.12295081967213115 0.12295081967213115 0.12295081967213115
0.13114754098360656 0.13114754098360656 0.13114754098360656
0.13934426229508196 0.13934426229508196 0.13934426229508196
0.14754098360655735 0.14754098360655735 0.14754098360655735
0.1557377049180328 0.1557377049180328 0.1557377049180328
0.16393442622950818 0.16393442622950818 0.16393442622950818
0.1721311475409836 0.1721311475409836 0.1721311475409836
0.18032786885245902 0.18032786885245902 0.18032786885245902
0.18852459016393439 0.18852459016393439 0.18852459016393439
0.19672131147540983 0.19672131147540983 0.19672131147540983
0.20491803278688525 0.20491803278688525 0.20491803278688525
0.21311475409836064 0.21311475409836064 0.21311475409836064
0.22131147540983606 0.22131147540983606 0.22131147540983606
0.22950819672131148 0.22950819672131148 0.22950819672131148
0.23770491803278687 0.23770491803278687 0.23770491803278687
0.2459016393442623 0.2459016393442623 0.2459016393442623
0.2540983606557377 0.2540983606557377 0.2540983606557377
0.26229508196721313 0.26229508196721313 0.26229508196721313
0.27049180327868855 0.27049180327868855 0.27049180327868855
0.2786885245901639 0.2786885245901639 0.2786885245901639
0.28688524590163933 0.28688524590163933 0.28688524590163933
0.2950819672131147 0.2950819672131147 0.2950819672131147
0.3032786885245901 0.3032786885245901 0.3032786885245901
0.3114754098360656 0.3114754098360656 0.3114754098360656
0.319672131147541 0.319672131147541 0.319672131147541
0.32786885245901637 0.32786885245901637 0.32786885245901637
0.3360655737704918 0.3360655737704918 0.3360655737704918
0.3442622950819672 0.3442622950819672 0.3442622950819672
0.3524590163934426 0.3524590163934426 0.3524590163934426
0.36065573770491804 0.36065573770491804 0.36065573770491804
0.36885245901639346 0.36885245901639346 0.36885245901639346
0.37704918032786877 0.37704918032786877 0.37704918032786877
0.3852459016393442 0.3852459016393442 0.3852459016393442
0.39344262295081966 0.39344262295081966 0.39344262295081966
0.4016393442622951 0.4016393442622951 0.4016393442622951
0.4098360655737705 0.4098360655737705 0.4098360655737705
0.4180327868852459 0.4180327868852459 0.4180327868852459
0.4262295081967213 0.4262295081967213 0.4262295081967213
0.4344262295081967 0.4344262295081967 0.4344262295081967
0.4426229508196721 0.4426229508196721 0.4426229508196721
0.45081967213114754 0.45081967213114754 0.45081967213114754
0.45901639344262296 0.45901639344262296 0.45901639344262296
0.4672131147540984 0.4672131147540984 0.4672131147540984
0.47540983606557374 0.47540983606557374 0.47540983606557374
0.48360655737704916 0.48360655737704916 0.48360655737704916
0.4918032786885246 0.4918032786885246 0.4918032786885246
0.5 0.5 0.5                    ! L
0.5029069767441859 0.49418604651162784 0.5029069767441859
0.5058139534883721 0.4883720930232558 0.5058139534883721
0.5087209302325582 0.4825581395348837 0.5087209302325582
0.5116279069767442 0.47674418604651164 0.5116279069767442
0.5145348837209303 0.47093023255813954 0.5145348837209303
0.5174418604651162 0.4651162790697674 0.5174418604651162
0.5203488372093024 0.4593023255813954 0.5203488372093024
0.5232558139534883 0.45348837209302323 0.5232558139534883
0.5261627906976744 0.4476744186046511 0.5261627906976744
0.5290697674418605 0.4418604651162791 0.5290697674418605
0.5319767441860465 0.4360465116279069 0.5319767441860465
0.5348837209302326 0.43023255813953487 0.5348837209302326
0.5377906976744186 0.42441860465116277 0.5377906976744186
0.5406976744186046 0.41860465116279066 0.5406976744186046
0.5436046511627907 0.4127906976744186 0.5436046511627907
0.5465116279069767 0.40697674418604646 0.5465116279069767
0.5494186046511629 0.40116279069767447 0.5494186046511628
0.5523255813953488 0.3953488372093023 0.5523255813953488
0.5552325581395349 0.38953488372093026 0.5552325581395349
0.5581395348837209 0.38372093023255816 0.5581395348837209
0.561046511627907 0.37790697674418605 0.561046511627907
0.563953488372093 0.37209302325581395 0.563953488372093
0.566860465116279 0.36627906976744184 0.566860465116279
0.5697674418604651 0.36046511627906974 0.569767441860465
0.5726744186046512 0.35465116279069764 0.5726744186046511
0.5755813953488372 0.3488372093023256 0.5755813953488372
0.5784883720930232 0.3430232558139535 0.5784883720930232
0.5813953488372093 0.3372093023255814 0.5813953488372093
0.5843023255813953 0.33139534883720934 0.5843023255813953
0.5872093023255813 0.32558139534883723 0.5872093023255813
0.5901162790697675 0.31976744186046513 0.5901162790697674
0.5930232558139534 0.313953488372093 0.5930232558139534
0.5959302325581396 0.3081395348837209 0.5959302325581395
0.5988372093023255 0.3023255813953488 0.5988372093023255
0.6017441860465116 0.2965116279069767 0.6017441860465116
0.6046511627906977 0.29069767441860467 0.6046511627906977
0.6075581395348837 0.28488372093023256 0.6075581395348837
0.6104651162790697 0.2790697674418605 0.6104651162790697
0.6133720930232558 0.2732558139534884 0.6133720930232558
0.6162790697674418 0.2674418604651163 0.6162790697674418
0.6191860465116279 0.2616279069767442 0.6191860465116279
0.622093023255814 0.2558139534883721 0.622093023255814
0.625 0.25 0.625               ! U
0.62 0.25 0.63
0.615 0.25 0.635
0.61 0.25 0.64
0.605 0.25 0.645
0.6 0.25 0.65
0.595 0.25 0.655
0.59 0.24999999999999997 0.6599999999999999
0.585 0.25 0.665
0.5800000000000001 0.25 0.6699999999999999
0.575 0.25 0.675
0.5700000000000001 0.24999999999999997 0.6799999999999999
0.5650000000000001 0.25 0.6849999999999999
0.56 0.24999999999999997 0.69
0.555 0.24999999999999994 0.695
0.55 0.25 0.7
0.545 0.24999999999999994 0.705
0.54 0.24999999999999994 0.71
0.535 0.24999999999999994 0.715
0.53 0.24999999999999994 0.72
0.525 0.24999999999999994 0.725
0.52 0.25 0.73
0.515 0.24999999999999994 0.7349999999999999
0.51 0.24999999999999997 0.74
0.505 0.24999999999999994 0.7449999999999999
0.5 0.24999999999999994 0.75   ! W
0.49999999999999994 0.25499999999999995 0.7449999999999999
0.49999999999999994 0.25999999999999995 0.7399999999999999
0.5 0.26499999999999996 0.735
0.5 0.26999999999999996 0.73
0.5 0.27499999999999997 0.7249999999999999
0.49999999999999994 0.2799999999999999 0.72
0.5 0.2849999999999999 0.7149999999999999
0.49999999999999994 0.2899999999999999 0.71
0.5 0.29499999999999993 0.705
0.5 0.29999999999999993 0.7
0.5 0.30499999999999994 0.695
0.5 0.30999999999999994 0.69
0.49999999999999994 0.31499999999999995 0.6849999999999998
0.49999999999999994 0.31999999999999995 0.6799999999999999
0.5 0.32499999999999996 0.6749999999999999
0.5 0.32999999999999996 0.6699999999999999
0.5 0.33499999999999996 0.6649999999999999
0.5 0.33999999999999997 0.6599999999999999
0.5 0.345 0.6549999999999999
0.5 0.35 0.6499999999999999
0.49999999999999994 0.3549999999999999 0.6449999999999999
0.5 0.35999999999999993 0.6399999999999999
0.5 0.36499999999999994 0.635
0.5 0.36999999999999994 0.6299999999999999
0.49999999999999994 0.37499999999999994 0.6249999999999999
0.49999999999999994 0.38 0.6199999999999999
0.5 0.385 0.615
0.5 0.39 0.61
0.5 0.395 0.605
0.5 0.4 0.6
0.5 0.405 0.595
0.49999999999999994 0.41 0.59
0.5 0.41500000000000004 0.585
0.5 0.42 0.5800000000000001
0.5 0.425 0.575
0.49999999999999994 0.43 0.57
0.49999999999999994 0.435 0.565
0.5 0.44 0.56
0.5 0.445 0.5549999999999999
0.5 0.45 0.55
0.5 0.45499999999999996 0.5449999999999999
0.5 0.45999999999999996 0.54
0.5 0.46499999999999997 0.5349999999999999
0.5 0.47 0.53
0.5 0.475 0.5249999999999999
0.5 0.48 0.52
0.5 0.485 0.515
0.5 0.49 0.51
0.5 0.495 0.505
0.5 0.5 0.5                    ! L
0.49709302325581395 0.49709302325581395 0.5058139534883721
0.4941860465116279 0.4941860465116279 0.5116279069767441
0.49127906976744184 0.49127906976744184 0.5174418604651163
0.4883720930232558 0.4883720930232558 0.5232558139534883
0.48546511627906974 0.48546511627906974 0.5290697674418604
0.48255813953488375 0.48255813953488375 0.5348837209302326
0.47965116279069764 0.47965116279069764 0.5406976744186046
0.4767441860465116 0.4767441860465116 0.5465116279069767
0.47383720930232553 0.47383720930232553 0.5523255813953488
0.47093023255813954 0.47093023255813954 0.5581395348837209
0.4680232558139535 0.4680232558139535 0.563953488372093
0.4651162790697674 0.4651162790697674 0.569767441860465
0.46220930232558144 0.46220930232558144 0.5755813953488372
0.4593023255813954 0.4593023255813954 0.5813953488372093
0.4563953488372092 0.4563953488372092 0.5872093023255813
0.4534883720930232 0.4534883720930232 0.5930232558139534
0.4505813953488372 0.4505813953488372 0.5988372093023255
0.4476744186046512 0.4476744186046512 0.6046511627906976
0.44476744186046513 0.44476744186046513 0.6104651162790697
0.4418604651162791 0.4418604651162791 0.6162790697674418
0.438953488372093 0.438953488372093 0.622093023255814
0.4360465116279069 0.4360465116279069 0.6279069767441859
0.4331395348837209 0.4331395348837209 0.6337209302325582
0.43023255813953487 0.43023255813953487 0.6395348837209303
0.4273255813953488 0.4273255813953488 0.6453488372093023
0.42441860465116277 0.42441860465116277 0.6511627906976744
0.4215116279069767 0.4215116279069767 0.6569767441860465
0.41860465116279066 0.41860465116279066 0.6627906976744186
0.4156976744186046 0.4156976744186046 0.6686046511627907
0.41279069767441856 0.41279069767441856 0.6744186046511628
0.4098837209302325 0.4098837209302325 0.6802325581395348
0.40697674418604646 0.40697674418604646 0.6860465116279069
0.4040697674418604 0.4040697674418604 0.691860465116279
0.40116279069767447 0.40116279069767447 0.6976744186046512
0.39825581395348836 0.39825581395348836 0.7034883720930232
0.3953488372093023 0.3953488372093023 0.7093023255813953
0.39244186046511625 0.39244186046511625 0.7151162790697674
0.3895348837209302 0.3895348837209302 0.7209302325581395
0.38662790697674415 0.38662790697674415 0.7267441860465116
0.3837209302325581 0.3837209302325581 0.7325581395348836
0.38081395348837205 0.38081395348837205 0.7383720930232558
0.377906976744186 0.377906976744186 0.7441860465116278
0.37499999999999994 0.37499999999999994 0.7499999999999999 ! K
0.625 0.25 0.625               ! U
0.62 0.24000000000000005 0.62
0.615 0.22999999999999998 0.615
0.61 0.22000000000000003 0.61
0.605 0.21000000000000002 0.605
0.6 0.2 0.6
0.595 0.19 0.595
0.59 0.18 0.59
0.585 0.16999999999999998 0.585
0.5800000000000001 0.16 0.58
0.575 0.15 0.575
0.5700000000000001 0.14 0.57
0.5650000000000001 0.13 0.565
0.56 0.12 0.5599999999999999
0.555 0.10999999999999999 0.5549999999999999
0.55 0.1 0.55
0.545 0.09 0.545
0.54 0.07999999999999999 0.54
0.535 0.07 0.535
0.53 0.060000000000000005 0.53
0.525 0.049999999999999996 0.525
0.52 0.04000000000000001 0.52
0.515 0.030000000000000002 0.515
0.51 0.019999999999999993 0.51
0.505 0.010000000000000031 0.505
0.5 0.0 0.5                    ! X
%endblock phonon_fine_kpoint_list
