Rb Sn  I                                
   1.00000000000000     
     7.7473255959265126    0.0000000000000000   -0.0000000000000000
    -0.0000000000000000    7.7473255959265126   -0.0000000000000000
     0.0000000000000000   -0.0000000000000000   12.2977828664195670
   Rb   Sn   I 
     4     2    12
Direct
  0.5000000000000000  0.0000000000000000  0.2500000000000000
  0.5000000000000000  0.0000000000000000  0.7500000000000000
 -0.0000000000000000  0.5000000000000000  0.2500000000000000
 -0.0000000000000000  0.5000000000000000  0.7500000000000000
 -0.0000000000000000  0.0000000000000000 -0.0000000000000000
  0.5000000000000000  0.5000000000000000  0.5000000000000000
  0.3082352780500925  0.2048330143348473 -0.0000000000000000
  0.6917646919499111  0.7951669706651578 -0.0000000000000000
  0.7951669706651578  0.3082352780500925 -0.0000000000000000
  0.2048330143348473  0.6917646919499111 -0.0000000000000000
  0.1917647219499053  0.7048330293348422  0.5000000000000000
  0.8082353080500889  0.2951669706651543  0.5000000000000000
  0.7048330293348422  0.8082353080500889  0.5000000000000000
  0.2951669706651543  0.1917647219499053  0.5000000000000000
 -0.0000000000000000  0.0000000000000000  0.2365076865964522
 -0.0000000000000000  0.0000000000000000  0.7634923434035545
  0.5000000000000000  0.5000000000000000  0.2634923134035468
  0.5000000000000000  0.5000000000000000  0.7365076565964455
 
  0.00000000E+00  0.00000000E+00  0.00000000E+00
  0.00000000E+00  0.00000000E+00  0.00000000E+00
  0.00000000E+00  0.00000000E+00  0.00000000E+00
  0.00000000E+00  0.00000000E+00  0.00000000E+00
  0.00000000E+00  0.00000000E+00  0.00000000E+00
  0.00000000E+00  0.00000000E+00  0.00000000E+00
  0.00000000E+00  0.00000000E+00  0.00000000E+00
  0.00000000E+00  0.00000000E+00  0.00000000E+00
  0.00000000E+00  0.00000000E+00  0.00000000E+00
  0.00000000E+00  0.00000000E+00  0.00000000E+00
  0.00000000E+00  0.00000000E+00  0.00000000E+00
  0.00000000E+00  0.00000000E+00  0.00000000E+00
  0.00000000E+00  0.00000000E+00  0.00000000E+00
  0.00000000E+00  0.00000000E+00  0.00000000E+00
  0.00000000E+00  0.00000000E+00  0.00000000E+00
  0.00000000E+00  0.00000000E+00  0.00000000E+00
  0.00000000E+00  0.00000000E+00  0.00000000E+00
  0.00000000E+00  0.00000000E+00  0.00000000E+00
