Rb Sn  I 
 1.0000000000000000
    23.2419767877795387    0.0000000000000000    0.0000000000000000
     0.0000000000000000   23.2419767877795387    0.0000000000000000
     0.0000000000000000    0.0000000000000000   24.5955657328391339
  72  36 216
Cartesian
  3.8736627979632563  0.0000000000000000  3.0744457166048913
 11.6209883938897693  0.0000000000000000  3.0744457166048913
 19.3683139898162828  0.0000000000000000  3.0744457166048913
  3.8736627979632563  7.7473255959265126  3.0744457166048913
 11.6209883938897693  7.7473255959265126  3.0744457166048913
 19.3683139898162828  7.7473255959265126  3.0744457166048913
  3.8736627979632563 15.4946511918530252  3.0744457166048913
 11.6209883938897693 15.4946511918530252  3.0744457166048913
 19.3683139898162828 15.4946511918530252  3.0744457166048913
  3.8736627979632563  0.0000000000000000 15.3722285830244587
 11.6209883938897693  0.0000000000000000 15.3722285830244587
 19.3683139898162828  0.0000000000000000 15.3722285830244587
  3.8736627979632563  7.7473255959265126 15.3722285830244587
 11.6209883938897693  7.7473255959265126 15.3722285830244587
 19.3683139898162828  7.7473255959265126 15.3722285830244587
  3.8736627979632563 15.4946511918530252 15.3722285830244587
 11.6209883938897693 15.4946511918530252 15.3722285830244587
 19.3683139898162828 15.4946511918530252 15.3722285830244587
  3.8736627979632563  0.0000000000000000  9.2233371498146735
 11.6209883938897693  0.0000000000000000  9.2233371498146735
 19.3683139898162828  0.0000000000000000  9.2233371498146735
  3.8736627979632563  7.7473255959265126  9.2233371498146735
 11.6209883938897693  7.7473255959265126  9.2233371498146735
 19.3683139898162828  7.7473255959265126  9.2233371498146735
  3.8736627979632563 15.4946511918530252  9.2233371498146735
 11.6209883938897693 15.4946511918530252  9.2233371498146735
 19.3683139898162828 15.4946511918530252  9.2233371498146735
  3.8736627979632563  0.0000000000000000 21.5211200162342422
 11.6209883938897693  0.0000000000000000 21.5211200162342422
 19.3683139898162828  0.0000000000000000 21.5211200162342422
  3.8736627979632563  7.7473255959265126 21.5211200162342422
 11.6209883938897693  7.7473255959265126 21.5211200162342422
 19.3683139898162828  7.7473255959265126 21.5211200162342422
  3.8736627979632563 15.4946511918530252 21.5211200162342422
 11.6209883938897693 15.4946511918530252 21.5211200162342422
 19.3683139898162828 15.4946511918530252 21.5211200162342422
  0.0000000000000000  3.8736627979632563  3.0744457166048913
  7.7473255959265126  3.8736627979632563  3.0744457166048913
 15.4946511918530252  3.8736627979632563  3.0744457166048913
  0.0000000000000000 11.6209883938897693  3.0744457166048913
  7.7473255959265126 11.6209883938897693  3.0744457166048913
 15.4946511918530252 11.6209883938897693  3.0744457166048913
  0.0000000000000000 19.3683139898162828  3.0744457166048913
  7.7473255959265126 19.3683139898162828  3.0744457166048913
 15.4946511918530252 19.3683139898162828  3.0744457166048913
  0.0000000000000000  3.8736627979632563 15.3722285830244587
  7.7473255959265126  3.8736627979632563 15.3722285830244587
 15.4946511918530252  3.8736627979632563 15.3722285830244587
  0.0000000000000000 11.6209883938897693 15.3722285830244587
  7.7473255959265126 11.6209883938897693 15.3722285830244587
 15.4946511918530252 11.6209883938897693 15.3722285830244587
  0.0000000000000000 19.3683139898162828 15.3722285830244587
  7.7473255959265126 19.3683139898162828 15.3722285830244587
 15.4946511918530252 19.3683139898162828 15.3722285830244587
  0.0000000000000000  3.8736627979632563  9.2233371498146735
  7.7473255959265126  3.8736627979632563  9.2233371498146735
 15.4946511918530252  3.8736627979632563  9.2233371498146735
  0.0000000000000000 11.6209883938897693  9.2233371498146735
  7.7473255959265126 11.6209883938897693  9.2233371498146735
 15.4946511918530252 11.6209883938897693  9.2233371498146735
  0.0000000000000000 19.3683139898162828  9.2233371498146735
  7.7473255959265126 19.3683139898162828  9.2233371498146735
 15.4946511918530252 19.3683139898162828  9.2233371498146735
  0.0000000000000000  3.8736627979632563 21.5211200162342422
  7.7473255959265126  3.8736627979632563 21.5211200162342422
 15.4946511918530252  3.8736627979632563 21.5211200162342422
  0.0000000000000000 11.6209883938897693 21.5211200162342422
  7.7473255959265126 11.6209883938897693 21.5211200162342422
 15.4946511918530252 11.6209883938897693 21.5211200162342422
  0.0000000000000000 19.3683139898162828 21.5211200162342422
  7.7473255959265126 19.3683139898162828 21.5211200162342422
 15.4946511918530252 19.3683139898162828 21.5211200162342422
  0.0000000000000000  0.0000000000000000  0.0000000000000000
  7.7473255959265126  0.0000000000000000  0.0000000000000000
 15.4946511918530252  0.0000000000000000  0.0000000000000000
  0.0000000000000000  7.7473255959265126  0.0000000000000000
  7.7473255959265126  7.7473255959265126  0.0000000000000000
 15.4946511918530252  7.7473255959265126  0.0000000000000000
  0.0000000000000000 15.4946511918530252  0.0000000000000000
  7.7473255959265126 15.4946511918530252  0.0000000000000000
 15.4946511918530252 15.4946511918530252  0.0000000000000000
  0.0000000000000000  0.0000000000000000 12.2977828664195670
  7.7473255959265126  0.0000000000000000 12.2977828664195670
 15.4946511918530252  0.0000000000000000 12.2977828664195670
  0.0000000000000000  7.7473255959265126 12.2977828664195670
  7.7473255959265126  7.7473255959265126 12.2977828664195670
 15.4946511918530252  7.7473255959265126 12.2977828664195670
  0.0000000000000000 15.4946511918530252 12.2977828664195670
  7.7473255959265126 15.4946511918530252 12.2977828664195670
 15.4946511918530252 15.4946511918530252 12.2977828664195670
  3.8736627979632563  3.8736627979632563  6.1488914332097826
 11.6209883938897693  3.8736627979632563  6.1488914332097826
 19.3683139898162828  3.8736627979632563  6.1488914332097826
  3.8736627979632563 11.6209883938897693  6.1488914332097826
 11.6209883938897693 11.6209883938897693  6.1488914332097826
 19.3683139898162828 11.6209883938897693  6.1488914332097826
  3.8736627979632563 19.3683139898162828  6.1488914332097826
 11.6209883938897693 19.3683139898162828  6.1488914332097826
 19.3683139898162828 19.3683139898162828  6.1488914332097826
  3.8736627979632563  3.8736627979632563 18.4466742996293505
 11.6209883938897693  3.8736627979632563 18.4466742996293505
 19.3683139898162828  3.8736627979632563 18.4466742996293505
  3.8736627979632563 11.6209883938897693 18.4466742996293505
 11.6209883938897693 11.6209883938897693 18.4466742996293505
 19.3683139898162828 11.6209883938897693 18.4466742996293505
  3.8736627979632563 19.3683139898162828 18.4466742996293505
 11.6209883938897693 19.3683139898162828 18.4466742996293505
 19.3683139898162828 19.3683139898162828 18.4466742996293505
  2.3879990592050064  1.5869080548471448  0.0000000000000000
 10.1353246551315195  1.5869080548471448  0.0000000000000000
 17.8826502510580312  1.5869080548471448  0.0000000000000000
  2.3879990592050064  9.3342336507736583  0.0000000000000000
 10.1353246551315195  9.3342336507736583  0.0000000000000000
 17.8826502510580312  9.3342336507736583  0.0000000000000000
  2.3879990592050064 17.0815592467001700  0.0000000000000000
 10.1353246551315195 17.0815592467001700  0.0000000000000000
 17.8826502510580312 17.0815592467001700  0.0000000000000000
  2.3879990592050064  1.5869080548471448 12.2977828664195670
 10.1353246551315195  1.5869080548471448 12.2977828664195670
 17.8826502510580312  1.5869080548471448 12.2977828664195670
  2.3879990592050064  9.3342336507736583 12.2977828664195670
 10.1353246551315195  9.3342336507736583 12.2977828664195670
 17.8826502510580312  9.3342336507736583 12.2977828664195670
  2.3879990592050064 17.0815592467001700 12.2977828664195670
 10.1353246551315195 17.0815592467001700 12.2977828664195670
 17.8826502510580312 17.0815592467001700 12.2977828664195670
  5.3593263043017654  6.1604174248695225  0.0000000000000000
 13.1066519002282789  6.1604174248695225  0.0000000000000000
 20.8539774961547941  6.1604174248695225  0.0000000000000000
  5.3593263043017654 13.9077430207960351  0.0000000000000000
 13.1066519002282789 13.9077430207960351  0.0000000000000000
 20.8539774961547941 13.9077430207960351  0.0000000000000000
  5.3593263043017654 21.6550686167225486  0.0000000000000000
 13.1066519002282789 21.6550686167225486  0.0000000000000000
 20.8539774961547941 21.6550686167225486  0.0000000000000000
  5.3593263043017654  6.1604174248695225 12.2977828664195670
 13.1066519002282789  6.1604174248695225 12.2977828664195670
 20.8539774961547941  6.1604174248695225 12.2977828664195670
  5.3593263043017654 13.9077430207960351 12.2977828664195670
 13.1066519002282789 13.9077430207960351 12.2977828664195670
 20.8539774961547941 13.9077430207960351 12.2977828664195670
  5.3593263043017654 21.6550686167225486 12.2977828664195670
 13.1066519002282789 21.6550686167225486 12.2977828664195670
 20.8539774961547941 21.6550686167225486 12.2977828664195670
  6.1604174248695225  2.3879990592050064  0.0000000000000000
 13.9077430207960351  2.3879990592050064  0.0000000000000000
 21.6550686167225486  2.3879990592050064  0.0000000000000000
  6.1604174248695225 10.1353246551315195  0.0000000000000000
 13.9077430207960351 10.1353246551315195  0.0000000000000000
 21.6550686167225486 10.1353246551315195  0.0000000000000000
  6.1604174248695225 17.8826502510580312  0.0000000000000000
 13.9077430207960351 17.8826502510580312  0.0000000000000000
 21.6550686167225486 17.8826502510580312  0.0000000000000000
  6.1604174248695225  2.3879990592050064 12.2977828664195670
 13.9077430207960351  2.3879990592050064 12.2977828664195670
 21.6550686167225486  2.3879990592050064 12.2977828664195670
  6.1604174248695225 10.1353246551315195 12.2977828664195670
 13.9077430207960351 10.1353246551315195 12.2977828664195670
 21.6550686167225486 10.1353246551315195 12.2977828664195670
  6.1604174248695225 17.8826502510580312 12.2977828664195670
 13.9077430207960351 17.8826502510580312 12.2977828664195670
 21.6550686167225486 17.8826502510580312 12.2977828664195670
  1.5869080548471448  5.3593263043017654  0.0000000000000000
  9.3342336507736583  5.3593263043017654  0.0000000000000000
 17.0815592467001700  5.3593263043017654  0.0000000000000000
  1.5869080548471448 13.1066519002282789  0.0000000000000000
  9.3342336507736583 13.1066519002282789  0.0000000000000000
 17.0815592467001700 13.1066519002282789  0.0000000000000000
  1.5869080548471448 20.8539774961547941  0.0000000000000000
  9.3342336507736583 20.8539774961547941  0.0000000000000000
 17.0815592467001700 20.8539774961547941  0.0000000000000000
  1.5869080548471448  5.3593263043017654 12.2977828664195670
  9.3342336507736583  5.3593263043017654 12.2977828664195670
 17.0815592467001700  5.3593263043017654 12.2977828664195670
  1.5869080548471448 13.1066519002282789 12.2977828664195670
  9.3342336507736583 13.1066519002282789 12.2977828664195670
 17.0815592467001700 13.1066519002282789 12.2977828664195670
  1.5869080548471448 20.8539774961547941 12.2977828664195670
  9.3342336507736583 20.8539774961547941 12.2977828664195670
 17.0815592467001700 20.8539774961547941 12.2977828664195670
  1.4856637387582321  5.4605709690202451  6.1488914332097826
  9.2329893346847456  5.4605709690202451  6.1488914332097826
 16.9803149306112573  5.4605709690202451  6.1488914332097826
  1.4856637387582321 13.2078965649467559  6.1488914332097826
  9.2329893346847456 13.2078965649467559  6.1488914332097826
 16.9803149306112573 13.2078965649467559  6.1488914332097826
  1.4856637387582321 20.9552221608732694  6.1488914332097826
  9.2329893346847456 20.9552221608732694  6.1488914332097826
 16.9803149306112573 20.9552221608732694  6.1488914332097826
  1.4856637387582321  5.4605709690202451 18.4466742996293505
  9.2329893346847456  5.4605709690202451 18.4466742996293505
 16.9803149306112573  5.4605709690202451 18.4466742996293505
  1.4856637387582321 13.2078965649467559 18.4466742996293505
  9.2329893346847456 13.2078965649467559 18.4466742996293505
 16.9803149306112573 13.2078965649467559 18.4466742996293505
  1.4856637387582321 20.9552221608732694 18.4466742996293505
  9.2329893346847456 20.9552221608732694 18.4466742996293505
 16.9803149306112573 20.9552221608732694 18.4466742996293505
  6.2616620895880040  2.2867546269062400  6.1488914332097826
 14.0089876855145157  2.2867546269062400  6.1488914332097826
 21.7563132814410274  2.2867546269062400  6.1488914332097826
  6.2616620895880040 10.0340802228327526  6.1488914332097826
 14.0089876855145157 10.0340802228327526  6.1488914332097826
 21.7563132814410274 10.0340802228327526  6.1488914332097826
  6.2616620895880040 17.7814058187592678  6.1488914332097826
 14.0089876855145157 17.7814058187592678  6.1488914332097826
 21.7563132814410274 17.7814058187592678  6.1488914332097826
  6.2616620895880040  2.2867546269062400 18.4466742996293505
 14.0089876855145157  2.2867546269062400 18.4466742996293505
 21.7563132814410274  2.2867546269062400 18.4466742996293505
  6.2616620895880040 10.0340802228327526 18.4466742996293505
 14.0089876855145157 10.0340802228327526 18.4466742996293505
 21.7563132814410274 10.0340802228327526 18.4466742996293505
  6.2616620895880040 17.7814058187592678 18.4466742996293505
 14.0089876855145157 17.7814058187592678 18.4466742996293505
 21.7563132814410274 17.7814058187592678 18.4466742996293505
  5.4605709690202451  6.2616620895880040  6.1488914332097826
 13.2078965649467559  6.2616620895880040  6.1488914332097826
 20.9552221608732694  6.2616620895880040  6.1488914332097826
  5.4605709690202451 14.0089876855145157  6.1488914332097826
 13.2078965649467559 14.0089876855145157  6.1488914332097826
 20.9552221608732694 14.0089876855145157  6.1488914332097826
  5.4605709690202451 21.7563132814410274  6.1488914332097826
 13.2078965649467559 21.7563132814410274  6.1488914332097826
 20.9552221608732694 21.7563132814410274  6.1488914332097826
  5.4605709690202451  6.2616620895880040 18.4466742996293505
 13.2078965649467559  6.2616620895880040 18.4466742996293505
 20.9552221608732694  6.2616620895880040 18.4466742996293505
  5.4605709690202451 14.0089876855145157 18.4466742996293505
 13.2078965649467559 14.0089876855145157 18.4466742996293505
 20.9552221608732694 14.0089876855145157 18.4466742996293505
  5.4605709690202451 21.7563132814410274 18.4466742996293505
 13.2078965649467559 21.7563132814410274 18.4466742996293505
 20.9552221608732694 21.7563132814410274 18.4466742996293505
  2.2867546269062400  1.4856637387582321  6.1488914332097826
 10.0340802228327526  1.4856637387582321  6.1488914332097826
 17.7814058187592678  1.4856637387582321  6.1488914332097826
  2.2867546269062400  9.2329893346847456  6.1488914332097826
 10.0340802228327526  9.2329893346847456  6.1488914332097826
 17.7814058187592678  9.2329893346847456  6.1488914332097826
  2.2867546269062400 16.9803149306112573  6.1488914332097826
 10.0340802228327526 16.9803149306112573  6.1488914332097826
 17.7814058187592678 16.9803149306112573  6.1488914332097826
  2.2867546269062400  1.4856637387582321 18.4466742996293505
 10.0340802228327526  1.4856637387582321 18.4466742996293505
 17.7814058187592678  1.4856637387582321 18.4466742996293505
  2.2867546269062400  9.2329893346847456 18.4466742996293505
 10.0340802228327526  9.2329893346847456 18.4466742996293505
 17.7814058187592678  9.2329893346847456 18.4466742996293505
  2.2867546269062400 16.9803149306112573 18.4466742996293505
 10.0340802228327526 16.9803149306112573 18.4466742996293505
 17.7814058187592678 16.9803149306112573 18.4466742996293505
  0.0000000000000000  0.0000000000000000  2.9085201760023782
  7.7473255959265126  0.0000000000000000  2.9085201760023782
 15.4946511918530252  0.0000000000000000  2.9085201760023782
  0.0000000000000000  7.7473255959265126  2.9085201760023782
  7.7473255959265126  7.7473255959265126  2.9085201760023782
 15.4946511918530252  7.7473255959265126  2.9085201760023782
  0.0000000000000000 15.4946511918530252  2.9085201760023782
  7.7473255959265126 15.4946511918530252  2.9085201760023782
 15.4946511918530252 15.4946511918530252  2.9085201760023782
  0.0000000000000000  0.0000000000000000 15.2063030424219452
  7.7473255959265126  0.0000000000000000 15.2063030424219452
 15.4946511918530252  0.0000000000000000 15.2063030424219452
  0.0000000000000000  7.7473255959265126 15.2063030424219452
  7.7473255959265126  7.7473255959265126 15.2063030424219452
 15.4946511918530252  7.7473255959265126 15.2063030424219452
  0.0000000000000000 15.4946511918530252 15.2063030424219452
  7.7473255959265126 15.4946511918530252 15.2063030424219452
 15.4946511918530252 15.4946511918530252 15.2063030424219452
  0.0000000000000000  0.0000000000000000  9.3892630593507551
  7.7473255959265126  0.0000000000000000  9.3892630593507551
 15.4946511918530252  0.0000000000000000  9.3892630593507551
  0.0000000000000000  7.7473255959265126  9.3892630593507551
  7.7473255959265126  7.7473255959265126  9.3892630593507551
 15.4946511918530252  7.7473255959265126  9.3892630593507551
  0.0000000000000000 15.4946511918530252  9.3892630593507551
  7.7473255959265126 15.4946511918530252  9.3892630593507551
 15.4946511918530252 15.4946511918530252  9.3892630593507551
  0.0000000000000000  0.0000000000000000 21.6870459257703203
  7.7473255959265126  0.0000000000000000 21.6870459257703203
 15.4946511918530252  0.0000000000000000 21.6870459257703203
  0.0000000000000000  7.7473255959265126 21.6870459257703203
  7.7473255959265126  7.7473255959265126 21.6870459257703203
 15.4946511918530252  7.7473255959265126 21.6870459257703203
  0.0000000000000000 15.4946511918530252 21.6870459257703203
  7.7473255959265126 15.4946511918530252 21.6870459257703203
 15.4946511918530252 15.4946511918530252 21.6870459257703203
  3.8736627979632563  3.8736627979632563  3.2403712572073919
 11.6209883938897693  3.8736627979632563  3.2403712572073919
 19.3683139898162828  3.8736627979632563  3.2403712572073919
  3.8736627979632563 11.6209883938897693  3.2403712572073919
 11.6209883938897693 11.6209883938897693  3.2403712572073919
 19.3683139898162828 11.6209883938897693  3.2403712572073919
  3.8736627979632563 19.3683139898162828  3.2403712572073919
 11.6209883938897693 19.3683139898162828  3.2403712572073919
 19.3683139898162828 19.3683139898162828  3.2403712572073919
  3.8736627979632563  3.8736627979632563 15.5381541236269580
 11.6209883938897693  3.8736627979632563 15.5381541236269580
 19.3683139898162828  3.8736627979632563 15.5381541236269580
  3.8736627979632563 11.6209883938897693 15.5381541236269580
 11.6209883938897693 11.6209883938897693 15.5381541236269580
 19.3683139898162828 11.6209883938897693 15.5381541236269580
  3.8736627979632563 19.3683139898162828 15.5381541236269580
 11.6209883938897693 19.3683139898162828 15.5381541236269580
 19.3683139898162828 19.3683139898162828 15.5381541236269580
  3.8736627979632563  3.8736627979632563  9.0574112402785936
 11.6209883938897693  3.8736627979632563  9.0574112402785936
 19.3683139898162828  3.8736627979632563  9.0574112402785936
  3.8736627979632563 11.6209883938897693  9.0574112402785936
 11.6209883938897693 11.6209883938897693  9.0574112402785936
 19.3683139898162828 11.6209883938897693  9.0574112402785936
  3.8736627979632563 19.3683139898162828  9.0574112402785936
 11.6209883938897693 19.3683139898162828  9.0574112402785936
 19.3683139898162828 19.3683139898162828  9.0574112402785936
  3.8736627979632563  3.8736627979632563 21.3551941066981605
 11.6209883938897693  3.8736627979632563 21.3551941066981605
 19.3683139898162828  3.8736627979632563 21.3551941066981605
  3.8736627979632563 11.6209883938897693 21.3551941066981605
 11.6209883938897693 11.6209883938897693 21.3551941066981605
 19.3683139898162828 11.6209883938897693 21.3551941066981605
  3.8736627979632563 19.3683139898162828 21.3551941066981605
 11.6209883938897693 19.3683139898162828 21.3551941066981605
 19.3683139898162828 19.3683139898162828 21.3551941066981605
