 I Cs Sn                                
   1.00000000000000     
    -0.0000006911680453   -5.7776878372587941   -5.7776878763343298
     5.7776878619579373    0.0000006647441625   -5.7776878759959915
     5.7776878257669519   -5.7776878298862124    0.0000006598452654
   I    Cs   Sn
     6     2     1
Direct
  0.7514162673066653  0.2485837171090629  0.2485837298750957
  0.2485837326430817  0.7514162828645167  0.7514162702104684
  0.7514162788492040  0.7514162788181979  0.2485837248993710
  0.2485837211801110  0.2485837211442509  0.7514162750711881
  0.2485837169990691  0.7514162674578162  0.2485837296015607
  0.7514162829655024  0.2485837325435252  0.7514162703828783
  0.7499999932131679  0.7499999933806840  0.7499999932752411
  0.2500000068195815  0.2500000066100035  0.2500000067166519
  0.0000000000236167  0.0000000000719408 -0.0000000000324558
 
  0.00000000E+00  0.00000000E+00  0.00000000E+00
  0.00000000E+00  0.00000000E+00  0.00000000E+00
  0.00000000E+00  0.00000000E+00  0.00000000E+00
  0.00000000E+00  0.00000000E+00  0.00000000E+00
  0.00000000E+00  0.00000000E+00  0.00000000E+00
  0.00000000E+00  0.00000000E+00  0.00000000E+00
  0.00000000E+00  0.00000000E+00  0.00000000E+00
  0.00000000E+00  0.00000000E+00  0.00000000E+00
  0.00000000E+00  0.00000000E+00  0.00000000E+00
