 I Cs Sn 
 1.0000000000000000
    -0.0000020735041359  -17.3330635117763805  -17.3330636290029894
    17.3330635858738127    0.0000019942324875  -17.3330636279879755
    17.3330634773008541  -17.3330634896586382    0.0000019795357962
 162  54  27
Cartesian
  2.8724777954495861 -5.7776876538986119 -5.7776876221823690
  2.8724771042815407 -11.5553754911574060 -11.5553754985166997
  2.8724764131134957 -17.3330633284161983 -17.3330633748510259
  8.6501656574075252 -5.7776869891544491 -11.5553754981783605
  8.6501649662394797 -11.5553748264132441 -17.3330633745126903
  8.6501642750714343 -17.3330626636720346 -23.1107512508470201
 14.4278535193654633 -5.7776863244102863 -17.3330633741743547
 14.4278528281974179 -11.5553741616690822 -23.1107512505086845
 14.4278521370293724 -17.3330619989278745 -28.8884391268430107
  8.6501656212165372 -11.5553754837848253 -5.7776869623371034
  8.6501649300484917 -17.3330633210436176 -11.5553748386714350
  8.6501642388804481 -23.1107511583024099 -17.3330627150057595
 14.4278534831744754 -11.5553748190406615 -11.5553748383330959
 14.4278527920064299 -17.3330626562994574 -17.3330627146674239
 14.4278521008383844 -23.1107504935582497 -23.1107505910017537
 20.2055413451324135 -11.5553741542964996 -17.3330627143290883
 20.2055406539643698 -17.3330619915552937 -23.1107505906634181
 20.2055399627963226 -23.1107498288140860 -28.8884384669977443
 14.4278534469834891 -17.3330633136710368 -5.7776863024918388
 14.4278527558154437 -23.1107511509298327 -11.5553741788261686
 14.4278520646473982 -28.8884389881886250 -17.3330620551604966
 20.2055413089414273 -17.3330626489268731 -11.5553741784878294
 20.2055406177733801 -23.1107504861856690 -17.3330620548221610
 20.2055399266053364 -28.8884383234444613 -23.1107499311564908
 25.9832291708993637 -17.3330619841827129 -17.3330620544838254
 25.9832284797313200 -23.1107498214415088 -23.1107499308181552
 25.9832277885632728 -28.8884376587003011 -28.8884378071524814
  8.6828972014489718 -5.7776873487062490 -5.7776874698596918
  8.6828965102809263 -11.5553751859650440 -11.5553753461940207
  8.6828958191128809 -17.3330630232238327 -17.3330632225283487
 14.4605850634069100 -5.7776866839620871 -11.5553753458556834
 14.4605843722388645 -11.5553745212208803 -17.3330632221900132
 14.4605836810708190 -17.3330623584796726 -23.1107510985243430
 20.2382729253648463 -5.7776860192179242 -17.3330632218516776
 20.2382722341968027 -11.5553738564767183 -23.1107510981860074
 20.2382715430287590 -17.3330616937355089 -28.8884389745203336
 14.4605850272159238 -11.5553751785924632 -5.7776868100144263
 14.4605843360478783 -17.3330630158512555 -11.5553746863487561
 14.4605836448798328 -23.1107508531100478 -17.3330625626830823
 20.2382728891738601 -11.5553745138482995 -11.5553746860104187
 20.2382721980058164 -17.3330623511070954 -17.3330625623447467
 20.2382715068377692 -23.1107501883658841 -23.1107504386790765
 26.0159607511318001 -11.5553738491041376 -17.3330625620064112
 26.0159600599637528 -17.3330616863629317 -23.1107504383407409
 26.0159593687957091 -23.1107495236217240 -28.8884383146750672
 20.2382728529828775 -17.3330630084786748 -5.7776861501691608
 20.2382721618148302 -23.1107508457374706 -11.5553740265034914
 20.2382714706467866 -28.8884386829962594 -17.3330619028378194
 26.0159607149408139 -17.3330623437345146 -11.5553740261651541
 26.0159600237727666 -23.1107501809933069 -17.3330619024994839
 26.0159593326047229 -28.8884380182520992 -23.1107497788338137
 31.7936485768987502 -17.3330616789903509 -17.3330619021611483
 31.7936478857307065 -23.1107495162491468 -23.1107497784954781
 31.7936471945626629 -28.8884373535079355 -28.8884376548298043
  5.7776873550854786 -5.7776873575846013 -8.6828972843144339
  5.7776866639174340 -11.5553751948433945 -14.4605851606487636
  5.7776859727493886 -17.3330630321021886 -20.2382730369830917
 11.5553752170434159 -5.7776866928404385 -14.4605851603104245
 11.5553745258753704 -11.5553745300992325 -20.2382730366447561
 11.5553738347073249 -17.3330623673580249 -26.0159609129790859
 17.3330630790013558 -5.7776860280962765 -20.2382730363064169
 17.3330623878333085 -11.5553738653550688 -26.0159609126407467
 17.3330616966652649 -17.3330617026138611 -31.7936487889750765
 11.5553751808524297 -11.5553751874708137 -8.6828966244691692
 11.5553744896843860 -17.3330630247296078 -14.4605845008034990
 11.5553737985163405 -23.1107508619884001 -20.2382723771378252
 17.3330630428103696 -11.5553745227266518 -14.4605845004651599
 17.3330623516423223 -17.3330623599854441 -20.2382723767994896
 17.3330616604742787 -23.1107501972442400 -26.0159602531338194
 23.1107509047683060 -11.5553738579824898 -20.2382723764611505
 23.1107502136002623 -17.3330616952412804 -26.0159602527954803
 23.1107495224322150 -23.1107495325000762 -31.7936481291298101
 17.3330630066193834 -17.3330630173570270 -8.6828959646239028
 17.3330623154513397 -23.1107508546158193 -14.4605838409582326
 17.3330616242832924 -28.8884386918746152 -20.2382717172925624
 23.1107508685773197 -17.3330623526128669 -14.4605838406198934
 23.1107501774092761 -23.1107501898716592 -20.2382717169542268
 23.1107494862412288 -28.8884380271304515 -26.0159595932885566
 28.8884387305352597 -17.3330616878687032 -20.2382717166158876
 28.8884380393672124 -23.1107495251274955 -26.0159595929502174
 28.8884373481991688 -28.8884373623862878 -31.7936474692845472
  5.7776876410843041 -5.7776876448155150 -2.8724778081230360
  5.7776869499162586 -11.5553754820743091 -8.6501656844573667
  5.7776862587482141 -17.3330633193331032 -14.4278535607916965
 11.5553755030422423 -5.7776869800713531 -8.6501656841190293
 11.5553748118741968 -11.5553748173301454 -14.4278535604533591
 11.5553741207061513 -17.3330626545889395 -20.2055414367876871
 17.3330633650001822 -5.7776863153271902 -14.4278535601150217
 17.3330626738321349 -11.5553741525859834 -20.2055414364493515
 17.3330619826640913 -17.3330619898447758 -25.9832293127836813
 11.5553754668512560 -11.5553754747017283 -2.8724771482777709
 11.5553747756832106 -17.3330633119605224 -8.6501650246121002
 11.5553740845151651 -23.1107511492193147 -14.4278529009464300
 17.3330633288091924 -11.5553748099575646 -8.6501650242737629
 17.3330626376411487 -17.3330626472163587 -14.4278529006080927
 17.3330619464731015 -23.1107504844751510 -20.2055407769424242
 23.1107511907671324 -11.5553741452134027 -14.4278529002697553
 23.1107504995990851 -17.3330619824721950 -20.2055407766040886
 23.1107498084310414 -23.1107498197309909 -25.9832286529384184
 17.3330632926182062 -17.3330633045879381 -2.8724764884325054
 17.3330626014501590 -23.1107511418467340 -8.6501643647668356
 17.3330619102821153 -28.8884389791055263 -14.4278522411011654
 23.1107511545761426 -17.3330626398437779 -8.6501643644284982
 23.1107504634080989 -23.1107504771025702 -14.4278522407628280
 23.1107497722400517 -28.8884383143613626 -20.2055401170971578
 28.8884390165340825 -17.3330619750996142 -14.4278522404244907
 28.8884383253660353 -23.1107498123584065 -20.2055401167588222
 28.8884376341979916 -28.8884376496172024 -25.9832279930931520
  5.7776876641583232 -2.8724778079731883 -5.7776876222500340
  5.7776869729902778 -8.6501656452319811 -11.5553754985843629
  5.7776862818222323 -14.4278534824907751 -17.3330633749186944
 11.5553755261162596 -2.8724771432290259 -11.5553754982460255
 11.5553748349482142 -8.6501649804878191 -17.3330633745803553
 11.5553741437801687 -14.4278528177466132 -23.1107512509146851
 17.3330633880741978 -2.8724764784848631 -17.3330633742420162
 17.3330626969061541 -8.6501643157436572 -23.1107512505763459
 17.3330620057381068 -14.4278521530024513 -28.8884391269106757
 11.5553754899252734 -8.6501656378594003 -5.7776869624047684
 11.5553747987572279 -14.4278534751181944 -11.5553748387390982
 11.5553741075891825 -20.2055413123769867 -17.3330627150734280
 17.3330633518832116 -8.6501649731152384 -11.5553748384007609
 17.3330626607151643 -14.4278528103740324 -17.3330627147350889
 17.3330619695471206 -20.2055406476328265 -23.1107505910694186
 23.1107512138411479 -8.6501643083710746 -17.3330627143967497
 23.1107505226731043 -14.4278521456298687 -23.1107505907310795
 23.1107498315050570 -20.2055399828886628 -28.8884384670654093
 17.3330633156922254 -14.4278534677456154 -5.7776863025595029
 17.3330626245241817 -20.2055413050044095 -11.5553741788938318
 17.3330619333561344 -25.9832291422632018 -17.3330620552281651
 23.1107511776501653 -14.4278528030014517 -11.5553741785554944
 23.1107504864821180 -20.2055406402602458 -17.3330620548898260
 23.1107497953140744 -25.9832284775190381 -23.1107499312241558
 28.8884390396081017 -14.4278521382572897 -17.3330620545514869
 28.8884383484400580 -20.2055399755160821 -23.1107499308858166
 28.8884376572720107 -25.9832278127748779 -28.8884378072201464
  5.7776873323163631 -8.6828971941330551 -5.7776874700380771
  5.7776866411483176 -14.4605850313918491 -11.5553753463724060
  5.7776859499802731 -20.2382728686506432 -17.3330632227067341
 11.5553751942743013 -8.6828965293888913 -11.5553753460340687
 11.5553745031062558 -14.4605843666476854 -17.3330632223683985
 11.5553738119382103 -20.2382722039064795 -23.1107510987027283
 17.3330630562322376 -8.6828958646447294 -17.3330632220300593
 17.3330623650641940 -14.4605837019035235 -23.1107510983643891
 17.3330616738961467 -20.2382715391623158 -28.8884389746987189
 11.5553751580833151 -14.4605850240192666 -5.7776868101928116
 11.5553744669152696 -20.2382728612780625 -11.5553746865271414
 11.5553737757472241 -26.0159606985368548 -17.3330625628614676
 17.3330630200412514 -14.4605843592751047 -11.5553746861888040
 17.3330623288732077 -20.2382721965338988 -17.3330625625231320
 17.3330616377051605 -26.0159600337926911 -23.1107504388574618
 23.1107508819991914 -14.4605836945309427 -17.3330625621847929
 23.1107501908311441 -20.2382715317897350 -23.1107504385191227
 23.1107494996631004 -26.0159593690485273 -28.8884383148534525
 17.3330629838502652 -20.2382728539054781 -5.7776861503475461
 17.3330622926822180 -26.0159606911642740 -11.5553740266818750
 17.3330616015141743 -31.7936485284230663 -17.3330619030162048
 23.1107508458082016 -20.2382721891613144 -11.5553740263435376
 23.1107501546401579 -26.0159600264201103 -17.3330619026778692
 23.1107494634721107 -31.7936478636789026 -23.1107497790121990
 28.8884387077661415 -20.2382715244171543 -17.3330619023395300
 28.8884380165980943 -26.0159593616759466 -23.1107497786738598
 28.8884373254300506 -31.7936471989347389 -28.8884376550081896
  8.6665311703197379 -8.6665311737348834 -8.6665312419072542
  8.6665304791516924 -14.4442190109936774 -14.4442191182415858
  8.6665297879836469 -20.2219068482524698 -20.2219069945759138
 14.4442190322776742 -8.6665305089907214 -14.4442191179032466
 14.4442183411096288 -14.4442183462495155 -20.2219069942375782
 14.4442176499415833 -20.2219061835083096 -25.9995948705719080
 20.2219068942356124 -8.6665298442465595 -20.2219069938992391
 20.2219062030675687 -14.4442176815053518 -25.9995948702335689
 20.2219055118995215 -20.2219055187641459 -31.7772827465678986
 14.4442189960866898 -14.4442190036210967 -8.6665305820619896
 14.4442183049186443 -20.2219068408798890 -14.4442184583963211
 14.4442176137505989 -25.9995946781386849 -20.2219063347306509
 20.2219068580446262 -14.4442183388769347 -14.4442184580579820
 20.2219061668765825 -20.2219061761357288 -20.2219063343923153
 20.2219054757085352 -25.9995940133945211 -25.9995942107266451
 25.9995947200025661 -14.4442176741327728 -20.2219063340539762
 25.9995940288345189 -20.2219055113915651 -25.9995942103883060
 25.9995933376664752 -25.9995933486503574 -31.7772820867226358
 20.2219068218536435 -20.2219068335073118 -8.6665299222167249
 20.2219061306855963 -25.9995946707661041 -14.4442177985510565
 20.2219054395175526 -31.7772825080248964 -20.2219056748853845
 25.9995946838115799 -20.2219061687631481 -14.4442177982127173
 25.9995939926435327 -25.9995940060219404 -20.2219056745470489
 25.9995933014754890 -31.7772818432807362 -25.9995935508813787
 31.7772825457695163 -20.2219055040189843 -20.2219056742087098
 31.7772818546014726 -25.9995933412777767 -25.9995935505430396
 31.7772811634334253 -31.7772811785365725 -31.7772814268773693
  2.8888438261364606 -2.8888438288083376 -2.8888438507132101
  2.8888431349684156 -8.6665316660671312 -8.6665317270475395
  2.8888424438003701 -14.4442195033259235 -14.4442196033818675
  8.6665316880943983 -2.8888431640641747 -8.6665317267092021
  8.6665309969263529 -8.6665310013229693 -14.4442196030435319
  8.6665303057583074 -14.4442188385817598 -20.2219074793778582
 14.4442195500523365 -2.8888424993200124 -14.4442196027051946
 14.4442188588842910 -8.6665303365788073 -20.2219074790395226
 14.4442181677162456 -14.4442181738375979 -25.9995953553738524
  8.6665316519034121 -8.6665316586945504 -2.8888431908679446
  8.6665309607353667 -14.4442194959533445 -8.6665310672022748
  8.6665302695673230 -20.2219073332121368 -14.4442189435366029
 14.4442195138613503 -8.6665309939503885 -8.6665310668639375
 14.4442188226933048 -14.4442188312091826 -14.4442189431982673
 14.4442181315252594 -20.2219066684679731 -20.2219068195325917
 20.2219073758192884 -8.6665303292062266 -14.4442189428599299
 20.2219066846512412 -14.4442181664650207 -20.2219068191942561
 20.2219059934831975 -20.2219060037238130 -25.9995946955285859
 14.4442194776703623 -14.4442194885807620 -2.8888425310226791
 14.4442187865023168 -20.2219073258395561 -8.6665304073570084
 14.4442180953342714 -25.9995951630983484 -14.4442182836913364
 20.2219073396282987 -14.4442188238365983 -8.6665304070186711
 20.2219066484602550 -20.2219066610953924 -14.4442182833530008
 20.2219059572922077 -25.9995944983541847 -20.2219061596873289
 25.9995952015862350 -14.4442181590924363 -14.4442182830146635
 25.9995945104181914 -20.2219059963512287 -20.2219061593489933
 25.9995938192501441 -25.9995938336100210 -25.9995940356833231
  5.7776878259950832 -5.7776878298351431  0.0000006592931640
  5.7776871348270387 -11.5553756670939372 -5.7776872170411657
  5.7776864436589932 -17.3330635043527295 -11.5553750933754955
 11.5553756879530223 -5.7776871650909811 -5.7776872167028284
 11.5553749967849768 -11.5553750023497734 -11.5553750930371582
 11.5553743056169314 -17.3330628396085693 -17.3330629693714862
 17.3330635499109569 -5.7776865003468183 -11.5553750926988190
 17.3330628587429132 -11.5553743376056115 -17.3330629690331470
 17.3330621675748660 -17.3330621748644056 -23.1107508453674768
 11.5553756517620343 -11.5553756597213564  0.0000013191384294
 11.5553749605939888 -17.3330634969801487 -5.7776865571959002
 11.5553742694259434 -23.1107513342389446 -11.5553744335302291
 17.3330635137199742 -11.5553749949771927 -5.7776865568575628
 17.3330628225519270 -17.3330628322359850 -11.5553744331918917
 17.3330621313838833 -23.1107506694947809 -17.3330623095262233
 23.1107513756779106 -11.5553743302330307 -11.5553744328535526
 23.1107506845098634 -17.3330621674918248 -17.3330623091878842
 23.1107499933418197 -23.1107500047506171 -23.1107501855222139
 17.3330634775289880 -17.3330634896075679  0.0000019789836948
 17.3330627863609408 -23.1107513268663638 -5.7776858973506346
 17.3330620951928971 -28.8884391641251561 -11.5553737736849644
 23.1107513394869244 -17.3330628248634078 -5.7776858970122973
 23.1107506483188807 -23.1107506621222001 -11.5553737733466271
 23.1107499571508335 -28.8884384993809959 -17.3330616496809569
 28.8884392014448608 -17.3330621601192441 -11.5553737730082879
 28.8884385102768171 -23.1107499973780364 -17.3330616493426177
 28.8884378191087698 -28.8884378346368322 -23.1107495256769475
