%BLOCK LATTICE_ABC
2.983077  2.98308198  5.15994087
106.80215981  73.19772637 119.99807072
%ENDBLOCK LATTICE_ABC

%BLOCK POSITIONS_ABS
Ni  0.000000  0.000000  0.000000 SPIN=1
Ni  1.491603  0.861143  2.432002 SPIN=-1
O  0.000069  1.722313  1.215967  SPIN=0
O  2.983138 -0.000026  3.648036  SPIN=0 
%ENDBLOCK POSITIONS_ABS

%BLOCK SPECIES_POT
Ni C19
O  C19
%ENDBLOCK SPECIES_POT

KPOINTS_MP_GRID 7 7 7
SPECTRAL_KPOINTS_MP_GRID 2 2 2

