# written by ASE

%BLOCK LATTICE_CART
 2.983077  0.000000  0.000000
-1.491454  2.583475  0.000000
 1.491583 -0.861188  4.864003
%ENDBLOCK LATTICE_CART

%BLOCK POSITIONS_FRAC
Ni  0.000000  0.000000  0.000000
Ni  0.500000  0.500000  0.500000
O  0.250001  0.749999  0.249993
O  0.749999  0.250001  0.750007
%ENDBLOCK POSITIONS_FRAC

%BLOCK SPECIES_POT
Ni C19
O C19
%ENDBLOCK SPECIES_POT

KPOINTS_MP_GRID: 7 7 7
SPECTRAL_KPOINTS_MP_GRID: 2 2 2
