%BLOCK LATTICE_ABC
2.983077  2.98308198  5.15994087
106.80215981  73.19772637 119.99807072
%ENDBLOCK LATTICE_ABC

%BLOCK POSITIONS_FRAC
Ni  0.000000  0.000000  0.000000 SPIN=1
Ni  0.500000  0.500000  0.500000 SPIN=-1
O  0.250001  0.749999  0.249993  SPIN=0
O  0.749999  0.250001  0.750007  SPIN=0
%ENDBLOCK POSITIONS_FRAC

%BLOCK SPECIES_POT
Ni C19
O  C19
%ENDBLOCK SPECIES_POT

KPOINTS_MP_GRID 7 7 7
SPECTRAL_KPOINTS_MP_GRID 2 2 2

